*NODE, NSET=NALL
1,0,0,10
2,0,0,0
3,0,20,10
4,0,20,0
5,100,0,10
6,100,0,0
7,100,20,10
8,100,20,0
9,0,0,2.5
10,0,0,5
11,0,0,7.5
12,0,0,1.25
13,0,0,3.75
14,0,0,6.25
15,0,0,8.75
16,0,2.857142857,10
17,0,5.714285714,10
18,0,8.571428571,10
19,0,11.42857143,10
20,0,14.28571429,10
21,0,17.14285714,10
22,0,1.428571429,10
23,0,4.285714286,10
24,0,7.142857143,10
25,0,10,10
26,0,12.85714286,10
27,0,15.71428571,10
28,0,18.57142857,10
29,0,20,2.5
30,0,20,5
31,0,20,7.5
32,0,20,1.25
33,0,20,3.75
34,0,20,6.25
35,0,20,8.75
36,0,2.857142857,0
37,0,5.714285714,0
38,0,8.571428571,0
39,0,11.42857143,0
40,0,14.28571429,0
41,0,17.14285714,0
42,0,1.428571429,0
43,0,4.285714286,0
44,0,7.142857143,0
45,0,10,0
46,0,12.85714286,0
47,0,15.71428571,0
48,0,18.57142857,0
49,100,0,2.5
50,100,0,5
51,100,0,7.5
52,100,0,1.25
53,100,0,3.75
54,100,0,6.25
55,100,0,8.75
56,100,2.857142857,10
57,100,5.714285714,10
58,100,8.571428571,10
59,100,11.42857143,10
60,100,14.28571429,10
61,100,17.14285714,10
62,100,1.428571429,10
63,100,4.285714286,10
64,100,7.142857143,10
65,100,10,10
66,100,12.85714286,10
67,100,15.71428571,10
68,100,18.57142857,10
69,100,20,2.5
70,100,20,5
71,100,20,7.5
72,100,20,1.25
73,100,20,3.75
74,100,20,6.25
75,100,20,8.75
76,100,2.857142857,0
77,100,5.714285714,0
78,100,8.571428571,0
79,100,11.42857143,0
80,100,14.28571429,0
81,100,17.14285714,0
82,100,1.428571429,0
83,100,4.285714286,0
84,100,7.142857143,0
85,100,10,0
86,100,12.85714286,0
87,100,15.71428571,0
88,100,18.57142857,0
89,2.941176471,0,0
90,5.882352941,0,0
91,8.823529412,0,0
92,11.76470588,0,0
93,14.70588235,0,0
94,17.64705882,0,0
95,20.58823529,0,0
96,23.52941176,0,0
97,26.47058824,0,0
98,29.41176471,0,0
99,32.35294118,0,0
100,35.29411765,0,0
101,38.23529412,0,0
102,41.17647059,0,0
103,44.11764706,0,0
104,47.05882353,0,0
105,50,0,0
106,52.94117647,0,0
107,55.88235294,0,0
108,58.82352941,0,0
109,61.76470588,0,0
110,64.70588235,0,0
111,67.64705882,0,0
112,70.58823529,0,0
113,73.52941176,0,0
114,76.47058824,0,0
115,79.41176471,0,0
116,82.35294118,0,0
117,85.29411765,0,0
118,88.23529412,0,0
119,91.17647059,0,0
120,94.11764706,0,0
121,97.05882353,0,0
122,1.470588235,0,0
123,4.411764706,0,0
124,7.352941176,0,0
125,10.29411765,0,0
126,13.23529412,0,0
127,16.17647059,0,0
128,19.11764706,0,0
129,22.05882353,0,0
130,25,0,0
131,27.94117647,0,0
132,30.88235294,0,0
133,33.82352941,0,0
134,36.76470588,0,0
135,39.70588235,0,0
136,42.64705882,0,0
137,45.58823529,0,0
138,48.52941176,0,0
139,51.47058824,0,0
140,54.41176471,0,0
141,57.35294118,0,0
142,60.29411765,0,0
143,63.23529412,0,0
144,66.17647059,0,0
145,69.11764706,0,0
146,72.05882353,0,0
147,75,0,0
148,77.94117647,0,0
149,80.88235294,0,0
150,83.82352941,0,0
151,86.76470588,0,0
152,89.70588235,0,0
153,92.64705882,0,0
154,95.58823529,0,0
155,98.52941176,0,0
156,2.941176471,0,10
157,5.882352941,0,10
158,8.823529412,0,10
159,11.76470588,0,10
160,14.70588235,0,10
161,17.64705882,0,10
162,20.58823529,0,10
163,23.52941176,0,10
164,26.47058824,0,10
165,29.41176471,0,10
166,32.35294118,0,10
167,35.29411765,0,10
168,38.23529412,0,10
169,41.17647059,0,10
170,44.11764706,0,10
171,47.05882353,0,10
172,50,0,10
173,52.94117647,0,10
174,55.88235294,0,10
175,58.82352941,0,10
176,61.76470588,0,10
177,64.70588235,0,10
178,67.64705882,0,10
179,70.58823529,0,10
180,73.52941176,0,10
181,76.47058824,0,10
182,79.41176471,0,10
183,82.35294118,0,10
184,85.29411765,0,10
185,88.23529412,0,10
186,91.17647059,0,10
187,94.11764706,0,10
188,97.05882353,0,10
189,1.470588235,0,10
190,4.411764706,0,10
191,7.352941176,0,10
192,10.29411765,0,10
193,13.23529412,0,10
194,16.17647059,0,10
195,19.11764706,0,10
196,22.05882353,0,10
197,25,0,10
198,27.94117647,0,10
199,30.88235294,0,10
200,33.82352941,0,10
201,36.76470588,0,10
202,39.70588235,0,10
203,42.64705882,0,10
204,45.58823529,0,10
205,48.52941176,0,10
206,51.47058824,0,10
207,54.41176471,0,10
208,57.35294118,0,10
209,60.29411765,0,10
210,63.23529412,0,10
211,66.17647059,0,10
212,69.11764706,0,10
213,72.05882353,0,10
214,75,0,10
215,77.94117647,0,10
216,80.88235294,0,10
217,83.82352941,0,10
218,86.76470588,0,10
219,89.70588235,0,10
220,92.64705882,0,10
221,95.58823529,0,10
222,98.52941176,0,10
223,2.941176471,20,0
224,5.882352941,20,0
225,8.823529412,20,0
226,11.76470588,20,0
227,14.70588235,20,0
228,17.64705882,20,0
229,20.58823529,20,0
230,23.52941176,20,0
231,26.47058824,20,0
232,29.41176471,20,0
233,32.35294118,20,0
234,35.29411765,20,0
235,38.23529412,20,0
236,41.17647059,20,0
237,44.11764706,20,0
238,47.05882353,20,0
239,50,20,0
240,52.94117647,20,0
241,55.88235294,20,0
242,58.82352941,20,0
243,61.76470588,20,0
244,64.70588235,20,0
245,67.64705882,20,0
246,70.58823529,20,0
247,73.52941176,20,0
248,76.47058824,20,0
249,79.41176471,20,0
250,82.35294118,20,0
251,85.29411765,20,0
252,88.23529412,20,0
253,91.17647059,20,0
254,94.11764706,20,0
255,97.05882353,20,0
256,1.470588235,20,0
257,4.411764706,20,0
258,7.352941176,20,0
259,10.29411765,20,0
260,13.23529412,20,0
261,16.17647059,20,0
262,19.11764706,20,0
263,22.05882353,20,0
264,25,20,0
265,27.94117647,20,0
266,30.88235294,20,0
267,33.82352941,20,0
268,36.76470588,20,0
269,39.70588235,20,0
270,42.64705882,20,0
271,45.58823529,20,0
272,48.52941176,20,0
273,51.47058824,20,0
274,54.41176471,20,0
275,57.35294118,20,0
276,60.29411765,20,0
277,63.23529412,20,0
278,66.17647059,20,0
279,69.11764706,20,0
280,72.05882353,20,0
281,75,20,0
282,77.94117647,20,0
283,80.88235294,20,0
284,83.82352941,20,0
285,86.76470588,20,0
286,89.70588235,20,0
287,92.64705882,20,0
288,95.58823529,20,0
289,98.52941176,20,0
290,2.941176471,20,10
291,5.882352941,20,10
292,8.823529412,20,10
293,11.76470588,20,10
294,14.70588235,20,10
295,17.64705882,20,10
296,20.58823529,20,10
297,23.52941176,20,10
298,26.47058824,20,10
299,29.41176471,20,10
300,32.35294118,20,10
301,35.29411765,20,10
302,38.23529412,20,10
303,41.17647059,20,10
304,44.11764706,20,10
305,47.05882353,20,10
306,50,20,10
307,52.94117647,20,10
308,55.88235294,20,10
309,58.82352941,20,10
310,61.76470588,20,10
311,64.70588235,20,10
312,67.64705882,20,10
313,70.58823529,20,10
314,73.52941176,20,10
315,76.47058824,20,10
316,79.41176471,20,10
317,82.35294118,20,10
318,85.29411765,20,10
319,88.23529412,20,10
320,91.17647059,20,10
321,94.11764706,20,10
322,97.05882353,20,10
323,1.470588235,20,10
324,4.411764706,20,10
325,7.352941176,20,10
326,10.29411765,20,10
327,13.23529412,20,10
328,16.17647059,20,10
329,19.11764706,20,10
330,22.05882353,20,10
331,25,20,10
332,27.94117647,20,10
333,30.88235294,20,10
334,33.82352941,20,10
335,36.76470588,20,10
336,39.70588235,20,10
337,42.64705882,20,10
338,45.58823529,20,10
339,48.52941176,20,10
340,51.47058824,20,10
341,54.41176471,20,10
342,57.35294118,20,10
343,60.29411765,20,10
344,63.23529412,20,10
345,66.17647059,20,10
346,69.11764706,20,10
347,72.05882353,20,10
348,75,20,10
349,77.94117647,20,10
350,80.88235294,20,10
351,83.82352941,20,10
352,86.76470588,20,10
353,89.70588235,20,10
354,92.64705882,20,10
355,95.58823529,20,10
356,98.52941176,20,10
357,0,7.172582062,7.496078166
358,0,12.82745285,7.51285179
359,0,4.161410536,2.545785589
360,0,15.83858946,2.545785589
361,0,10.00003491,2.484430967
362,0,17.96583396,6.185398662
363,0,2.034166038,6.185398662
364,0,12.89077031,2.462702045
365,0,14.13384793,5.032019737
366,0,7.122137449,2.475400588
367,0,5.868344086,5.014566933
368,0,10.00004073,7.501809171
369,0,11.40396412,4.990742562
370,0,8.577593664,4.961886042
371,0,15.82360511,7.423431692
372,0,4.176713026,7.418542202
373,0,1.964146414,3.829634617
374,0,18.03585359,3.829634617
375,0,1.813604384,8.220788173
376,0,18.18645924,8.221766071
377,0,1.796539962,1.775084041
378,0,18.20346004,1.775084041
379,0,16.35954601,5.003254059
380,0,3.64095602,4.998785601
381,0,0.9068021921,9.110394086
382,0,0.9068021921,7.860394086
383,0,2.335373621,9.110394086
384,0,0.8982699808,2.137542021
385,0,0.8982699808,0.8875420206
386,0,2.326841409,0.8875420206
387,0,19.09322962,9.110883035
388,0,17.66465819,9.110883035
389,0,19.09322962,7.860883035
390,0,19.10173002,0.8875420206
391,0,19.10173002,2.137542021
392,0,17.67315859,0.8875420206
393,0,0.9820732072,4.414817308
394,0,0.9820732072,3.164817308
395,0,1.880343188,2.802359329
396,0,1.017083019,6.842699331
397,0,1.017083019,5.592699331
398,0,1.999156226,5.007516639
399,0,1.923885211,7.203093417
400,0,4.94549937,8.709271101
401,0,3.516927942,8.709271101
402,0,2.995158705,7.819665187
403,0,7.872005317,8.748039083
404,0,6.443433888,8.748039083
405,0,5.674647544,7.457310184
406,0,10.71430608,8.750904586
407,0,9.285734649,8.750904586
408,0,8.586311394,7.498943669
409,0,13.55658357,8.756425895
410,0,12.12801214,8.756425895
411,0,11.41374679,7.50733048
412,0,16.48323112,8.711715846
413,0,15.0546597,8.711715846
414,0,14.32552898,7.468141741
415,0,17.00503217,7.822598881
416,0,19.01792679,3.164817308
417,0,19.01792679,4.414817308
418,0,18.11965681,2.802359329
419,0,18.98291698,5.592699331
420,0,18.98291698,6.842699331
421,0,18.00084377,5.007516639
422,0,18.0761466,7.203582366
423,0,3.509276697,1.272892794
424,0,4.937848125,1.272892794
425,0,2.978975249,2.160434815
426,0,6.418211582,1.237700294
427,0,7.84678301,1.237700294
428,0,5.641773993,2.510593088
429,0,9.28573174,1.242215483
430,0,10.71430317,1.242215483
431,0,8.561086178,2.479915777
432,0,12.15967087,1.231351022
433,0,13.5882423,1.231351022
434,0,11.44540261,2.473566506
435,0,15.06215187,1.272892794
436,0,16.4907233,1.272892794
437,0,14.36467989,2.504243817
438,0,17.02102475,2.160434815
439,0,6.520463074,6.25532255
440,0,7.875087863,6.228982104
441,0,7.222968875,4.988226488
442,0,5.022528556,6.216554568
443,0,9.288817195,6.231847607
444,0,13.48065039,6.272435763
445,0,12.76890603,5.01138115
446,0,12.11570848,6.251797176
447,0,14.97872652,6.227725714
448,0,10.70200242,6.246275867
449,0,5.014877311,3.780176261
450,0,6.495240767,3.744983761
451,0,3.901183278,3.772285595
452,0,4.754650053,5.006676267
453,0,3.062778475,3.187710103
454,0,2.802551217,4.414210109
455,0,13.51230912,3.747360891
456,0,14.9862187,3.788902663
457,0,15.24669697,5.017636898
458,0,16.09906774,3.774519824
459,0,16.93722152,3.187710103
460,0,17.1976998,4.416444338
461,0,10.70199952,3.737586765
462,0,12.14736722,3.726722303
463,0,7.849865556,3.718643315
464,0,9.288814286,3.723158504
465,0,9.990778893,4.976314302
466,0,16.89471953,6.804415177
467,0,17.16268999,5.594326361
468,0,16.09157556,6.213342875
469,0,3.105439532,6.801970432
470,0,3.908834523,6.208663901
471,0,2.837561029,5.592092131
472,100,7.172582062,7.496078166
473,100,12.82745285,7.51285179
474,100,4.161410536,2.545785589
475,100,15.83858946,2.545785589
476,100,10.00003491,2.484430967
477,100,17.96583396,6.185398662
478,100,2.034166038,6.185398662
479,100,12.89077031,2.462702045
480,100,14.13384793,5.032019737
481,100,7.122137449,2.475400588
482,100,5.868344086,5.014566933
483,100,10.00004073,7.501809171
484,100,11.40396412,4.990742562
485,100,8.577593664,4.961886042
486,100,15.82360511,7.423431692
487,100,4.176713026,7.418542202
488,100,1.964146414,3.829634617
489,100,18.03585359,3.829634617
490,100,1.813604384,8.220788173
491,100,18.18645924,8.221766071
492,100,1.796539962,1.775084041
493,100,18.20346004,1.775084041
494,100,16.35954601,5.003254059
495,100,3.64095602,4.998785601
496,100,0.9068021921,7.860394086
497,100,0.9068021921,9.110394086
498,100,2.335373621,9.110394086
499,100,0.8982699808,0.8875420206
500,100,0.8982699808,2.137542021
501,100,2.326841409,0.8875420206
502,100,17.66465819,9.110883035
503,100,19.09322962,9.110883035
504,100,19.09322962,7.860883035
505,100,19.10173002,2.137542021
506,100,19.10173002,0.8875420206
507,100,17.67315859,0.8875420206
508,100,0.9820732072,3.164817308
509,100,0.9820732072,4.414817308
510,100,1.880343188,2.802359329
511,100,1.017083019,5.592699331
512,100,1.017083019,6.842699331
513,100,1.999156226,5.007516639
514,100,1.923885211,7.203093417
515,100,3.516927942,8.709271101
516,100,4.94549937,8.709271101
517,100,2.995158705,7.819665187
518,100,6.443433888,8.748039083
519,100,7.872005317,8.748039083
520,100,5.674647544,7.457310184
521,100,9.285734649,8.750904586
522,100,10.71430608,8.750904586
523,100,8.586311394,7.498943669
524,100,12.12801214,8.756425895
525,100,13.55658357,8.756425895
526,100,11.41374679,7.50733048
527,100,15.0546597,8.711715846
528,100,16.48323112,8.711715846
529,100,14.32552898,7.468141741
530,100,17.00503217,7.822598881
531,100,19.01792679,4.414817308
532,100,19.01792679,3.164817308
533,100,18.11965681,2.802359329
534,100,18.98291698,6.842699331
535,100,18.98291698,5.592699331
536,100,18.00084377,5.007516639
537,100,18.0761466,7.203582366
538,100,4.937848125,1.272892794
539,100,3.509276697,1.272892794
540,100,2.978975249,2.160434815
541,100,7.84678301,1.237700294
542,100,6.418211582,1.237700294
543,100,5.641773993,2.510593088
544,100,10.71430317,1.242215483
545,100,9.28573174,1.242215483
546,100,8.561086178,2.479915777
547,100,13.5882423,1.231351022
548,100,12.15967087,1.231351022
549,100,11.44540261,2.473566506
550,100,16.4907233,1.272892794
551,100,15.06215187,1.272892794
552,100,14.36467989,2.504243817
553,100,17.02102475,2.160434815
554,100,7.222968875,4.988226488
555,100,7.875087863,6.228982104
556,100,6.520463074,6.25532255
557,100,5.022528556,6.216554568
558,100,9.288817195,6.231847607
559,100,12.11570848,6.251797176
560,100,12.76890603,5.01138115
561,100,13.48065039,6.272435763
562,100,14.97872652,6.227725714
563,100,10.70200242,6.246275867
564,100,6.495240767,3.744983761
565,100,5.014877311,3.780176261
566,100,4.754650053,5.006676267
567,100,3.901183278,3.772285595
568,100,3.062778475,3.187710103
569,100,2.802551217,4.414210109
570,100,14.9862187,3.788902663
571,100,13.51230912,3.747360891
572,100,16.09906774,3.774519824
573,100,15.24669697,5.017636898
574,100,16.93722152,3.187710103
575,100,17.1976998,4.416444338
576,100,12.14736722,3.726722303
577,100,10.70199952,3.737586765
578,100,9.288814286,3.723158504
579,100,7.849865556,3.718643315
580,100,9.990778893,4.976314302
581,100,16.89471953,6.804415177
582,100,16.09157556,6.213342875
583,100,17.16268999,5.594326361
584,100,3.105439532,6.801970432
585,100,2.837561029,5.592092131
586,100,3.908834523,6.208663901
587,69.11764706,0,2.547133541
588,80.88235294,0,2.547133541
589,92.61668974,0,7.501822374
590,57.35294118,0,2.547133541
591,63.23529412,0,7.452866459
592,75,0,7.452866459
593,86.76470588,0,7.452866459
594,51.47058824,0,7.452866459
595,16.1729782,0,2.532571302
596,22.05882353,0,2.547133541
597,10.29411765,0,7.452866459
598,33.82352941,0,2.547133541
599,42.63370907,0,2.539426055
600,27.94117647,0,2.547133541
601,4.27451189,0,7.423759694
602,7.352941176,0,2.547133541
603,95.72564135,0,2.576155914
604,48.52941176,0,2.547133541
605,89.70588235,0,2.547133541
606,19.11764706,0,7.452866459
607,36.76470588,0,7.452866459
608,45.57869975,0,7.492252175
609,25,0,7.452866459
610,30.88235294,0,7.452866459
611,2.076296906,0,3.821313107
612,97.92370486,0,6.178686893
613,69.11764706,0,7.452866459
614,80.88235294,0,7.452866459
615,57.35294118,0,7.452866459
616,63.23529412,0,2.547133541
617,75,0,2.547133541
618,7.341251812,0,7.466423211
619,10.28024369,0,2.539123409
620,13.22726192,0,2.526470181
621,14.69909893,0,5.008267093
622,92.65934251,0,2.533223468
623,72.05882353,0,2.547133541
624,72.05882353,0,7.452866459
625,48.52860092,0,7.472247401
626,51.47058824,0,2.547133541
627,60.29411765,0,7.452866459
628,60.29411765,0,2.547133541
629,25,0,2.547133541
630,36.76470588,0,2.547133541
631,39.70365739,0,2.530135013
632,41.14717529,0,5.027304692
633,33.82352941,0,7.452866459
634,77.94117647,0,7.452866459
635,77.94117647,0,2.547133541
636,45.57266058,0,2.522430294
637,89.70588235,0,7.452866459
638,86.76470588,0,2.547133541
639,27.94117647,0,7.452866459
640,22.05882353,0,7.452866459
641,83.82352941,0,2.547133541
642,19.11749554,0,2.538321289
643,83.82352941,0,7.452866459
644,54.41176471,0,2.547133541
645,30.88235294,0,2.547133541
646,54.41176471,0,7.452866459
647,66.17647059,0,2.547133541
648,66.17647059,0,7.452866459
649,6.033430594,0,4.979774415
650,8.823315301,0,5
651,16.23147649,0,7.497411892
652,2.165063509,0,6.25
653,39.7009998,0,7.504550782
654,44.10635451,0,5.021427226
655,93.96176914,0,5.028209686
656,13.17595108,0,7.497772631
657,91.16968028,0,5.002290451
658,17.64705882,0,4.999977523
659,79.41176471,0,5
660,76.47058824,0,5
661,64.70588235,0,5
662,82.35294118,0,5
663,55.88235294,0,5
664,67.64705882,0,5
665,61.76470588,0,5
666,58.82352941,0,5
667,88.23529412,0,5
668,85.29411765,0,5
669,73.52941176,0,5
670,52.94117647,0,5
671,47.05262125,0,5.009248439
672,20.58823529,0,5
673,23.52941176,0,5
674,29.41176471,0,5
675,32.35294118,0,5
676,26.47058824,0,5
677,35.29411765,0,4.999997234
678,70.58823529,0,5
679,50,0,5
680,38.23529412,0,4.999983403
681,42.63789117,0,7.507589146
682,11.74385086,0,4.998116019
683,97.83493649,0,3.75
684,4.283413469,0,2.583538523
685,95.71156411,0,7.424595765
686,3.766543274,0,5.011677148
687,1.876150374,0,8.234751939
688,1.860177369,0,1.780970326
689,98.12388027,0,1.765231183
690,98.1388185,0,8.220656531
691,96.23152319,0,4.991529651
692,0.938075187,0,7.867375969
693,0.938075187,0,9.117375969
694,2.408663422,0,9.117375969
695,0.9300886845,0,0.8904851631
696,0.9300886845,0,2.140485163
697,2.40067692,0,0.8904851631
698,99.06940925,0,9.110328266
699,99.06940925,0,7.860328266
700,97.59882101,0,9.110328266
701,99.06194014,0,2.132615591
702,99.06194014,0,0.8826155914
703,97.5913519,0,0.8826155914
704,1.038148453,0,3.160656554
705,1.038148453,0,4.410656554
706,1.968237138,0,2.801141717
707,1.082531755,0,5.625
708,1.082531755,0,6.875
709,2.120680208,0,5.035656554
710,2.020606942,0,7.242375969
711,98.91746825,0,4.375
712,98.91746825,0,3.125
713,97.97940838,0,2.757615591
714,98.96185243,0,6.839343446
715,98.96185243,0,5.589343446
716,97.87932068,0,4.964343446
717,98.03126168,0,7.199671712
718,5.082883205,0,1.291769262
719,3.61229497,0,1.291769262
720,3.071795419,0,2.182254425
721,8.088235294,0,1.27356677
722,6.617647059,0,1.27356677
723,5.818177322,0,2.565336032
724,11.02247479,0,1.269561704
725,9.551886552,0,1.269561704
726,8.816592434,0,2.543128475
727,13.96657214,0,1.26323509
728,12.4959839,0,1.26323509
729,11.7537528,0,2.532796795
730,16.91001851,0,1.266285651
731,15.43943028,0,1.266285651
732,14.70012006,0,2.529520741
733,19.85286542,0,1.269160644
734,18.38227718,0,1.269160644
735,17.64523687,0,2.535446295
736,22.79411765,0,1.27356677
737,21.32352941,0,1.27356677
738,20.58815954,0,2.542727415
739,25.73529412,0,1.27356677
740,24.26470588,0,1.27356677
741,23.52941176,0,2.547133541
742,28.67647059,0,1.27356677
743,27.20588235,0,1.27356677
744,26.47058824,0,2.547133541
745,31.61764706,0,1.27356677
746,30.14705882,0,1.27356677
747,29.41176471,0,2.547133541
748,34.55882353,0,1.27356677
749,33.08823529,0,1.27356677
750,32.35294118,0,2.547133541
751,37.5,0,1.27356677
752,36.02941176,0,1.27356677
753,35.29411765,0,2.547133541
754,40.44006399,0,1.265067507
755,38.96947576,0,1.265067507
756,38.23418164,0,2.538634277
757,43.37567806,0,1.269713028
758,41.90508983,0,1.269713028
759,41.16868323,0,2.534780534
760,46.31574205,0,1.261215147
761,44.84515382,0,1.261215147
762,44.10318482,0,2.530928175
763,49.26470588,0,1.27356677
764,47.79411765,0,1.27356677
765,47.05103617,0,2.534781917
766,52.20588235,0,1.27356677
767,50.73529412,0,1.27356677
768,50,0,2.547133541
769,55.14705882,0,1.27356677
770,53.67647059,0,1.27356677
771,52.94117647,0,2.547133541
772,58.08823529,0,1.27356677
773,56.61764706,0,1.27356677
774,55.88235294,0,2.547133541
775,61.02941176,0,1.27356677
776,59.55882353,0,1.27356677
777,58.82352941,0,2.547133541
778,63.97058824,0,1.27356677
779,62.5,0,1.27356677
780,61.76470588,0,2.547133541
781,66.91176471,0,1.27356677
782,65.44117647,0,1.27356677
783,64.70588235,0,2.547133541
784,69.85294118,0,1.27356677
785,68.38235294,0,1.27356677
786,67.64705882,0,2.547133541
787,72.79411765,0,1.27356677
788,71.32352941,0,1.27356677
789,70.58823529,0,2.547133541
790,75.73529412,0,1.27356677
791,74.26470588,0,1.27356677
792,73.52941176,0,2.547133541
793,78.67647059,0,1.27356677
794,77.20588235,0,1.27356677
795,76.47058824,0,2.547133541
796,81.61764706,0,1.27356677
797,80.14705882,0,1.27356677
798,79.41176471,0,2.547133541
799,84.55882353,0,1.27356677
800,83.08823529,0,1.27356677
801,82.35294118,0,2.547133541
802,87.5,0,1.27356677
803,86.02941176,0,1.27356677
804,85.29411765,0,2.547133541
805,90.44117647,0,1.27356677
806,88.97058824,0,1.27356677
807,88.23529412,0,2.547133541
808,93.38849478,0,1.266611734
809,91.91790655,0,1.266611734
810,91.18261243,0,2.540178504
811,96.39223244,0,1.288077957
812,94.9216442,0,1.288077957
813,94.19249193,0,2.554689691
814,96.92476081,0,2.170693548
815,3.60784418,0,8.711879847
816,5.078432416,0,8.711879847
817,3.075331132,0,7.829255817
818,6.611802377,0,8.733211605
819,8.082390612,0,8.733211605
820,5.807881851,0,7.445091453
821,9.558823529,0,8.72643323
822,11.02941176,0,8.72643323
823,8.81768473,0,7.459644835
824,12.47032848,0,8.748886315
825,13.94091672,0,8.748886315
826,11.73503436,0,7.475319545
827,15.46867942,0,8.748705946
828,16.93926765,0,8.748705946
829,14.70371378,0,7.497592261
830,18.38235294,0,8.72643323
831,19.85294118,0,8.72643323
832,17.67456177,0,7.475139176
833,21.32352941,0,8.72643323
834,22.79411765,0,8.72643323
835,20.58823529,0,7.452866459
836,24.26470588,0,8.72643323
837,25.73529412,0,8.72643323
838,23.52941176,0,7.452866459
839,27.20588235,0,8.72643323
840,28.67647059,0,8.72643323
841,26.47058824,0,7.452866459
842,30.14705882,0,8.72643323
843,31.61764706,0,8.72643323
844,29.41176471,0,7.452866459
845,33.08823529,0,8.72643323
846,34.55882353,0,8.72643323
847,32.35294118,0,7.452866459
848,36.02941176,0,8.72643323
849,37.5,0,8.72643323
850,35.29411765,0,7.452866459
851,38.96814696,0,8.752275391
852,40.4387352,0,8.752275391
853,38.23285284,0,7.478708621
854,41.90718088,0,8.753794573
855,43.37776911,0,8.753794573
856,41.16944549,0,7.506069964
857,44.84817341,0,8.746126087
858,46.31876164,0,8.746126087
859,44.10829546,0,7.49992066
860,47.79371222,0,8.736123701
861,49.26430046,0,8.736123701
862,47.05365034,0,7.482249788
863,50.73529412,0,8.72643323
864,52.20588235,0,8.72643323
865,49.99959458,0,7.46255693
866,53.67647059,0,8.72643323
867,55.14705882,0,8.72643323
868,52.94117647,0,7.452866459
869,56.61764706,0,8.72643323
870,58.08823529,0,8.72643323
871,55.88235294,0,7.452866459
872,59.55882353,0,8.72643323
873,61.02941176,0,8.72643323
874,58.82352941,0,7.452866459
875,62.5,0,8.72643323
876,63.97058824,0,8.72643323
877,61.76470588,0,7.452866459
878,65.44117647,0,8.72643323
879,66.91176471,0,8.72643323
880,64.70588235,0,7.452866459
881,68.38235294,0,8.72643323
882,69.85294118,0,8.72643323
883,67.64705882,0,7.452866459
884,71.32352941,0,8.72643323
885,72.79411765,0,8.72643323
886,70.58823529,0,7.452866459
887,74.26470588,0,8.72643323
888,75.73529412,0,8.72643323
889,73.52941176,0,7.452866459
890,77.20588235,0,8.72643323
891,78.67647059,0,8.72643323
892,76.47058824,0,7.452866459
893,80.14705882,0,8.72643323
894,81.61764706,0,8.72643323
895,79.41176471,0,7.452866459
896,83.08823529,0,8.72643323
897,84.55882353,0,8.72643323
898,82.35294118,0,7.452866459
899,86.02941176,0,8.72643323
900,87.5,0,8.72643323
901,85.29411765,0,7.452866459
902,88.97058824,0,8.72643323
903,90.44117647,0,8.72643323
904,88.23529412,0,7.452866459
905,91.89658016,0,8.750911187
906,93.3671684,0,8.750911187
907,91.16128604,0,7.477344417
908,94.91460558,0,8.712297882
909,96.38519382,0,8.712297882
910,94.16412692,0,7.463209069
911,96.9251913,0,7.822626148
912,71.32352941,0,3.77356677
913,69.85294118,0,3.77356677
914,68.38235294,0,3.77356677
915,66.91176471,0,3.77356677
916,69.11764706,0,5
917,80.14705882,0,3.77356677
918,78.67647059,0,3.77356677
919,83.08823529,0,3.77356677
920,81.61764706,0,3.77356677
921,80.88235294,0,5
922,90.43778131,0,6.227578455
923,91.89318501,0,6.252056412
924,93.28922944,0,6.26501603
925,92.56572471,0,5.015250068
926,94.83666662,0,6.226402725
927,59.55882353,0,3.77356677
928,58.08823529,0,3.77356677
929,56.61764706,0,3.77356677
930,55.14705882,0,3.77356677
931,57.35294118,0,5
932,61.02941176,0,6.22643323
933,62.5,0,6.22643323
934,63.97058824,0,6.22643323
935,65.44117647,0,6.22643323
936,63.23529412,0,5
937,72.79411765,0,6.22643323
938,74.26470588,0,6.22643323
939,75.73529412,0,6.22643323
940,77.20588235,0,6.22643323
941,75,0,5
942,87.5,0,6.22643323
943,88.97058824,0,6.22643323
944,84.55882353,0,6.22643323
945,86.02941176,0,6.22643323
946,86.76470588,0,5
947,49.26430046,0,6.236123701
948,50.73529412,0,6.22643323
949,52.20588235,0,6.22643323
950,53.67647059,0,6.22643323
951,51.47058824,0,5
952,15.43603856,0,3.770419197
953,13.96318042,0,3.767368637
954,16.91001851,0,3.766274412
955,16.17307888,0,5.004122308
956,18.38227718,0,3.769149406
957,24.26470588,0,3.77356677
958,22.79411765,0,3.77356677
959,21.32352941,0,3.77356677
960,19.85286542,0,3.769160644
961,22.05882353,0,5
962,8.082283556,0,6.233211605
963,9.558716474,0,6.22643323
964,10.28358308,0,4.999058009
965,11.01898425,0,6.225491239
966,12.45990097,0,6.247944325
967,36.02941176,0,3.773565387
968,34.55882353,0,3.773565387
969,33.08823529,0,3.77356677
970,31.61764706,0,3.77356677
971,33.82352941,0,4.999998617
972,41.89044218,0,3.783365373
973,40.42541634,0,3.778719852
974,43.37003179,0,3.78042664
975,42.6267649,0,5.024365959
976,44.83950754,0,3.77192876
977,27.20588235,0,3.77356677
978,25.73529412,0,3.77356677
979,30.14705882,0,3.77356677
980,28.67647059,0,3.77356677
981,27.94117647,0,5
982,5.153971242,0,6.201767055
983,6.687341203,0,6.223098813
984,4.020527582,0,6.217718421
985,4.899986934,0,4.995725782
986,3.2197877,0,6.836879847
987,2.965803391,0,5.630838574
988,9.551779496,0,3.769561704
989,8.088128239,0,3.77356677
990,6.693185885,0,3.763453978
991,7.428372947,0,4.989887208
992,5.158422031,0,3.781656469
993,94.84370524,0,3.8021828
994,93.31055583,0,3.780716577
995,95.97858227,0,3.783842783
996,95.09664617,0,5.009869669
997,96.78028892,0,3.163077957
998,97.03322984,0,4.370764826
999,50.73529412,0,3.77356677
1000,49.26470588,0,3.77356677
1001,47.79101651,0,3.77819099
1002,46.31264092,0,3.765839367
1003,48.52631063,0,5.00462422
1004,91.91451139,0,3.767756959
1005,90.43778131,0,3.774711996
1006,88.97058824,0,3.77356677
1007,87.5,0,3.77356677
1008,89.7024872,0,5.001145225
1009,19.85294118,0,6.22643323
1010,21.32352941,0,6.22643323
1011,16.93926765,0,6.248694708
1012,18.38235294,0,6.226421991
1013,19.11764706,0,4.999988761
1014,34.55882353,0,6.226431847
1015,36.02941176,0,6.226431847
1016,37.5,0,6.226424931
1017,38.96814696,0,6.252267092
1018,36.76470588,0,4.999990318
1019,46.3156605,0,6.250750307
1020,47.79061109,0,6.24074792
1021,44.84252713,0,6.2568397
1022,45.57948788,0,5.015337832
1023,43.37212284,0,6.264508186
1024,25.73529412,0,6.22643323
1025,27.20588235,0,6.22643323
1026,22.79411765,0,6.22643323
1027,24.26470588,0,6.22643323
1028,25,0,5
1029,31.61764706,0,6.22643323
1030,33.08823529,0,6.22643323
1031,28.67647059,0,6.22643323
1032,30.14705882,0,6.22643323
1033,30.88235294,0,5
1034,2.92142009,0,4.416495128
1035,3.179855187,0,3.202425815
1036,4.024978371,0,3.797607836
1037,97.07761403,0,5.585108272
1038,96.81763448,0,6.801641329
1039,95.97154365,0,6.208062708
1040,69.85294118,0,6.22643323
1041,71.32352941,0,6.22643323
1042,66.91176471,0,6.22643323
1043,68.38235294,0,6.22643323
1044,78.67647059,0,6.22643323
1045,80.14705882,0,6.22643323
1046,81.61764706,0,6.22643323
1047,83.08823529,0,6.22643323
1048,58.08823529,0,6.22643323
1049,59.55882353,0,6.22643323
1050,55.14705882,0,6.22643323
1051,56.61764706,0,6.22643323
1052,62.5,0,3.77356677
1053,61.02941176,0,3.77356677
1054,65.44117647,0,3.77356677
1055,63.97058824,0,3.77356677
1056,74.26470588,0,3.77356677
1057,72.79411765,0,3.77356677
1058,77.20588235,0,3.77356677
1059,75.73529412,0,3.77356677
1060,12.48555639,0,3.7622931
1061,11.01204728,0,3.768619714
1062,13.22147489,0,5.003191556
1063,15.46528771,0,6.252839492
1064,13.93752501,0,6.253019862
1065,72.05882353,0,5
1066,53.67647059,0,3.77356677
1067,52.20588235,0,3.77356677
1068,60.29411765,0,5
1069,38.96947576,0,3.765059208
1070,37.5,0,3.773558472
1071,39.6912347,0,5.013644047
1072,40.42408755,0,6.265927737
1073,41.89253323,0,6.267446919
1074,77.94117647,0,5
1075,86.02941176,0,3.77356677
1076,84.55882353,0,3.77356677
1077,83.82352941,0,5
1078,54.41176471,0,5
1079,66.17647059,0,5
1080,69.11764706,20,2.547133541
1081,80.88235294,20,2.547133541
1082,92.61668974,20,7.501822374
1083,57.35294118,20,2.547133541
1084,63.23529412,20,7.452866459
1085,75,20,7.452866459
1086,86.76470588,20,7.452866459
1087,51.47058824,20,7.452866459
1088,16.1729782,20,2.532571302
1089,22.05882353,20,2.547133541
1090,10.29411765,20,7.452866459
1091,33.82352941,20,2.547133541
1092,42.63370907,20,2.539426055
1093,27.94117647,20,2.547133541
1094,4.27451189,20,7.423759694
1095,7.352941176,20,2.547133541
1096,95.72564135,20,2.576155914
1097,48.52941176,20,2.547133541
1098,89.70588235,20,2.547133541
1099,19.11764706,20,7.452866459
1100,36.76470588,20,7.452866459
1101,45.57869975,20,7.492252175
1102,25,20,7.452866459
1103,30.88235294,20,7.452866459
1104,2.076296906,20,3.821313107
1105,97.92370486,20,6.178686893
1106,69.11764706,20,7.452866459
1107,80.88235294,20,7.452866459
1108,57.35294118,20,7.452866459
1109,63.23529412,20,2.547133541
1110,75,20,2.547133541
1111,7.341251812,20,7.466423211
1112,10.28024369,20,2.539123409
1113,13.22726192,20,2.526470181
1114,14.69909893,20,5.008267093
1115,92.65934251,20,2.533223468
1116,72.05882353,20,2.547133541
1117,72.05882353,20,7.452866459
1118,48.52860092,20,7.472247401
1119,51.47058824,20,2.547133541
1120,60.29411765,20,7.452866459
1121,60.29411765,20,2.547133541
1122,25,20,2.547133541
1123,36.76470588,20,2.547133541
1124,39.70365739,20,2.530135013
1125,41.14717529,20,5.027304692
1126,33.82352941,20,7.452866459
1127,77.94117647,20,7.452866459
1128,77.94117647,20,2.547133541
1129,45.57266058,20,2.522430294
1130,89.70588235,20,7.452866459
1131,86.76470588,20,2.547133541
1132,27.94117647,20,7.452866459
1133,22.05882353,20,7.452866459
1134,83.82352941,20,2.547133541
1135,19.11749554,20,2.538321289
1136,83.82352941,20,7.452866459
1137,54.41176471,20,2.547133541
1138,30.88235294,20,2.547133541
1139,54.41176471,20,7.452866459
1140,66.17647059,20,2.547133541
1141,66.17647059,20,7.452866459
1142,6.033430594,20,4.979774415
1143,8.823315301,20,5
1144,16.23147649,20,7.497411892
1145,2.165063509,20,6.25
1146,39.7009998,20,7.504550782
1147,44.10635451,20,5.021427226
1148,93.96176914,20,5.028209686
1149,13.17595108,20,7.497772631
1150,91.16968028,20,5.002290451
1151,17.64705882,20,4.999977523
1152,79.41176471,20,5
1153,76.47058824,20,5
1154,64.70588235,20,5
1155,82.35294118,20,5
1156,55.88235294,20,5
1157,67.64705882,20,5
1158,61.76470588,20,5
1159,58.82352941,20,5
1160,88.23529412,20,5
1161,85.29411765,20,5
1162,73.52941176,20,5
1163,52.94117647,20,5
1164,47.05262125,20,5.009248439
1165,20.58823529,20,5
1166,23.52941176,20,5
1167,29.41176471,20,5
1168,32.35294118,20,5
1169,26.47058824,20,5
1170,35.29411765,20,4.999997234
1171,70.58823529,20,5
1172,50,20,5
1173,38.23529412,20,4.999983403
1174,42.63789117,20,7.507589146
1175,11.74385086,20,4.998116019
1176,97.83493649,20,3.75
1177,4.283413469,20,2.583538523
1178,95.71156411,20,7.424595765
1179,3.766543274,20,5.011677148
1180,1.876150374,20,8.234751939
1181,1.860177369,20,1.780970326
1182,98.12388027,20,1.765231183
1183,98.1388185,20,8.220656531
1184,96.23152319,20,4.991529651
1185,0.938075187,20,9.117375969
1186,0.938075187,20,7.867375969
1187,2.408663422,20,9.117375969
1188,0.9300886845,20,2.140485163
1189,0.9300886845,20,0.8904851631
1190,2.40067692,20,0.8904851631
1191,99.06940925,20,7.860328266
1192,99.06940925,20,9.110328266
1193,97.59882101,20,9.110328266
1194,99.06194014,20,0.8826155914
1195,99.06194014,20,2.132615591
1196,97.5913519,20,0.8826155914
1197,1.038148453,20,4.410656554
1198,1.038148453,20,3.160656554
1199,1.968237138,20,2.801141717
1200,1.082531755,20,6.875
1201,1.082531755,20,5.625
1202,2.120680208,20,5.035656554
1203,2.020606942,20,7.242375969
1204,98.91746825,20,3.125
1205,98.91746825,20,4.375
1206,97.97940838,20,2.757615591
1207,98.96185243,20,5.589343446
1208,98.96185243,20,6.839343446
1209,97.87932068,20,4.964343446
1210,98.03126168,20,7.199671712
1211,3.61229497,20,1.291769262
1212,5.082883205,20,1.291769262
1213,3.071795419,20,2.182254425
1214,6.617647059,20,1.27356677
1215,8.088235294,20,1.27356677
1216,5.818177322,20,2.565336032
1217,9.551886552,20,1.269561704
1218,11.02247479,20,1.269561704
1219,8.816592434,20,2.543128475
1220,12.4959839,20,1.26323509
1221,13.96657214,20,1.26323509
1222,11.7537528,20,2.532796795
1223,15.43943028,20,1.266285651
1224,16.91001851,20,1.266285651
1225,14.70012006,20,2.529520741
1226,18.38227718,20,1.269160644
1227,19.85286542,20,1.269160644
1228,17.64523687,20,2.535446295
1229,21.32352941,20,1.27356677
1230,22.79411765,20,1.27356677
1231,20.58815954,20,2.542727415
1232,24.26470588,20,1.27356677
1233,25.73529412,20,1.27356677
1234,23.52941176,20,2.547133541
1235,27.20588235,20,1.27356677
1236,28.67647059,20,1.27356677
1237,26.47058824,20,2.547133541
1238,30.14705882,20,1.27356677
1239,31.61764706,20,1.27356677
1240,29.41176471,20,2.547133541
1241,33.08823529,20,1.27356677
1242,34.55882353,20,1.27356677
1243,32.35294118,20,2.547133541
1244,36.02941176,20,1.27356677
1245,37.5,20,1.27356677
1246,35.29411765,20,2.547133541
1247,38.96947576,20,1.265067507
1248,40.44006399,20,1.265067507
1249,38.23418164,20,2.538634277
1250,41.90508983,20,1.269713028
1251,43.37567806,20,1.269713028
1252,41.16868323,20,2.534780534
1253,44.84515382,20,1.261215147
1254,46.31574205,20,1.261215147
1255,44.10318482,20,2.530928175
1256,47.79411765,20,1.27356677
1257,49.26470588,20,1.27356677
1258,47.05103617,20,2.534781917
1259,50.73529412,20,1.27356677
1260,52.20588235,20,1.27356677
1261,50,20,2.547133541
1262,53.67647059,20,1.27356677
1263,55.14705882,20,1.27356677
1264,52.94117647,20,2.547133541
1265,56.61764706,20,1.27356677
1266,58.08823529,20,1.27356677
1267,55.88235294,20,2.547133541
1268,59.55882353,20,1.27356677
1269,61.02941176,20,1.27356677
1270,58.82352941,20,2.547133541
1271,62.5,20,1.27356677
1272,63.97058824,20,1.27356677
1273,61.76470588,20,2.547133541
1274,65.44117647,20,1.27356677
1275,66.91176471,20,1.27356677
1276,64.70588235,20,2.547133541
1277,68.38235294,20,1.27356677
1278,69.85294118,20,1.27356677
1279,67.64705882,20,2.547133541
1280,71.32352941,20,1.27356677
1281,72.79411765,20,1.27356677
1282,70.58823529,20,2.547133541
1283,74.26470588,20,1.27356677
1284,75.73529412,20,1.27356677
1285,73.52941176,20,2.547133541
1286,77.20588235,20,1.27356677
1287,78.67647059,20,1.27356677
1288,76.47058824,20,2.547133541
1289,80.14705882,20,1.27356677
1290,81.61764706,20,1.27356677
1291,79.41176471,20,2.547133541
1292,83.08823529,20,1.27356677
1293,84.55882353,20,1.27356677
1294,82.35294118,20,2.547133541
1295,86.02941176,20,1.27356677
1296,87.5,20,1.27356677
1297,85.29411765,20,2.547133541
1298,88.97058824,20,1.27356677
1299,90.44117647,20,1.27356677
1300,88.23529412,20,2.547133541
1301,91.91790655,20,1.266611734
1302,93.38849478,20,1.266611734
1303,91.18261243,20,2.540178504
1304,94.9216442,20,1.288077957
1305,96.39223244,20,1.288077957
1306,94.19249193,20,2.554689691
1307,96.92476081,20,2.170693548
1308,5.078432416,20,8.711879847
1309,3.60784418,20,8.711879847
1310,3.075331132,20,7.829255817
1311,8.082390612,20,8.733211605
1312,6.611802377,20,8.733211605
1313,5.807881851,20,7.445091453
1314,11.02941176,20,8.72643323
1315,9.558823529,20,8.72643323
1316,8.81768473,20,7.459644835
1317,13.94091672,20,8.748886315
1318,12.47032848,20,8.748886315
1319,11.73503436,20,7.475319545
1320,16.93926765,20,8.748705946
1321,15.46867942,20,8.748705946
1322,14.70371378,20,7.497592261
1323,19.85294118,20,8.72643323
1324,18.38235294,20,8.72643323
1325,17.67456177,20,7.475139176
1326,22.79411765,20,8.72643323
1327,21.32352941,20,8.72643323
1328,20.58823529,20,7.452866459
1329,25.73529412,20,8.72643323
1330,24.26470588,20,8.72643323
1331,23.52941176,20,7.452866459
1332,28.67647059,20,8.72643323
1333,27.20588235,20,8.72643323
1334,26.47058824,20,7.452866459
1335,31.61764706,20,8.72643323
1336,30.14705882,20,8.72643323
1337,29.41176471,20,7.452866459
1338,34.55882353,20,8.72643323
1339,33.08823529,20,8.72643323
1340,32.35294118,20,7.452866459
1341,37.5,20,8.72643323
1342,36.02941176,20,8.72643323
1343,35.29411765,20,7.452866459
1344,40.4387352,20,8.752275391
1345,38.96814696,20,8.752275391
1346,38.23285284,20,7.478708621
1347,43.37776911,20,8.753794573
1348,41.90718088,20,8.753794573
1349,41.16944549,20,7.506069964
1350,46.31876164,20,8.746126087
1351,44.84817341,20,8.746126087
1352,44.10829546,20,7.49992066
1353,49.26430046,20,8.736123701
1354,47.79371222,20,8.736123701
1355,47.05365034,20,7.482249788
1356,52.20588235,20,8.72643323
1357,50.73529412,20,8.72643323
1358,49.99959458,20,7.46255693
1359,55.14705882,20,8.72643323
1360,53.67647059,20,8.72643323
1361,52.94117647,20,7.452866459
1362,58.08823529,20,8.72643323
1363,56.61764706,20,8.72643323
1364,55.88235294,20,7.452866459
1365,61.02941176,20,8.72643323
1366,59.55882353,20,8.72643323
1367,58.82352941,20,7.452866459
1368,63.97058824,20,8.72643323
1369,62.5,20,8.72643323
1370,61.76470588,20,7.452866459
1371,66.91176471,20,8.72643323
1372,65.44117647,20,8.72643323
1373,64.70588235,20,7.452866459
1374,69.85294118,20,8.72643323
1375,68.38235294,20,8.72643323
1376,67.64705882,20,7.452866459
1377,72.79411765,20,8.72643323
1378,71.32352941,20,8.72643323
1379,70.58823529,20,7.452866459
1380,75.73529412,20,8.72643323
1381,74.26470588,20,8.72643323
1382,73.52941176,20,7.452866459
1383,78.67647059,20,8.72643323
1384,77.20588235,20,8.72643323
1385,76.47058824,20,7.452866459
1386,81.61764706,20,8.72643323
1387,80.14705882,20,8.72643323
1388,79.41176471,20,7.452866459
1389,84.55882353,20,8.72643323
1390,83.08823529,20,8.72643323
1391,82.35294118,20,7.452866459
1392,87.5,20,8.72643323
1393,86.02941176,20,8.72643323
1394,85.29411765,20,7.452866459
1395,90.44117647,20,8.72643323
1396,88.97058824,20,8.72643323
1397,88.23529412,20,7.452866459
1398,93.3671684,20,8.750911187
1399,91.89658016,20,8.750911187
1400,91.16128604,20,7.477344417
1401,96.38519382,20,8.712297882
1402,94.91460558,20,8.712297882
1403,94.16412692,20,7.463209069
1404,96.9251913,20,7.822626148
1405,69.85294118,20,3.77356677
1406,71.32352941,20,3.77356677
1407,66.91176471,20,3.77356677
1408,68.38235294,20,3.77356677
1409,69.11764706,20,5
1410,78.67647059,20,3.77356677
1411,80.14705882,20,3.77356677
1412,81.61764706,20,3.77356677
1413,83.08823529,20,3.77356677
1414,80.88235294,20,5
1415,91.89318501,20,6.252056412
1416,90.43778131,20,6.227578455
1417,92.56572471,20,5.015250068
1418,93.28922944,20,6.26501603
1419,94.83666662,20,6.226402725
1420,58.08823529,20,3.77356677
1421,59.55882353,20,3.77356677
1422,55.14705882,20,3.77356677
1423,56.61764706,20,3.77356677
1424,57.35294118,20,5
1425,62.5,20,6.22643323
1426,61.02941176,20,6.22643323
1427,65.44117647,20,6.22643323
1428,63.97058824,20,6.22643323
1429,63.23529412,20,5
1430,74.26470588,20,6.22643323
1431,72.79411765,20,6.22643323
1432,77.20588235,20,6.22643323
1433,75.73529412,20,6.22643323
1434,75,20,5
1435,88.97058824,20,6.22643323
1436,87.5,20,6.22643323
1437,86.02941176,20,6.22643323
1438,84.55882353,20,6.22643323
1439,86.76470588,20,5
1440,50.73529412,20,6.22643323
1441,49.26430046,20,6.236123701
1442,53.67647059,20,6.22643323
1443,52.20588235,20,6.22643323
1444,51.47058824,20,5
1445,13.96318042,20,3.767368637
1446,15.43603856,20,3.770419197
1447,16.17307888,20,5.004122308
1448,16.91001851,20,3.766274412
1449,18.38227718,20,3.769149406
1450,22.79411765,20,3.77356677
1451,24.26470588,20,3.77356677
1452,19.85286542,20,3.769160644
1453,21.32352941,20,3.77356677
1454,22.05882353,20,5
1455,9.558716474,20,6.22643323
1456,8.082283556,20,6.233211605
1457,11.01898425,20,6.225491239
1458,10.28358308,20,4.999058009
1459,12.45990097,20,6.247944325
1460,34.55882353,20,3.773565387
1461,36.02941176,20,3.773565387
1462,31.61764706,20,3.77356677
1463,33.08823529,20,3.77356677
1464,33.82352941,20,4.999998617
1465,40.42541634,20,3.778719852
1466,41.89044218,20,3.783365373
1467,42.6267649,20,5.024365959
1468,43.37003179,20,3.78042664
1469,44.83950754,20,3.77192876
1470,25.73529412,20,3.77356677
1471,27.20588235,20,3.77356677
1472,28.67647059,20,3.77356677
1473,30.14705882,20,3.77356677
1474,27.94117647,20,5
1475,6.687341203,20,6.223098813
1476,5.153971242,20,6.201767055
1477,4.899986934,20,4.995725782
1478,4.020527582,20,6.217718421
1479,2.965803391,20,5.630838574
1480,3.2197877,20,6.836879847
1481,8.088128239,20,3.77356677
1482,9.551779496,20,3.769561704
1483,7.428372947,20,4.989887208
1484,6.693185885,20,3.763453978
1485,5.158422031,20,3.781656469
1486,93.31055583,20,3.780716577
1487,94.84370524,20,3.8021828
1488,95.09664617,20,5.009869669
1489,95.97858227,20,3.783842783
1490,96.78028892,20,3.163077957
1491,97.03322984,20,4.370764826
1492,49.26470588,20,3.77356677
1493,50.73529412,20,3.77356677
1494,46.31264092,20,3.765839367
1495,47.79101651,20,3.77819099
1496,48.52631063,20,5.00462422
1497,90.43778131,20,3.774711996
1498,91.91451139,20,3.767756959
1499,87.5,20,3.77356677
1500,88.97058824,20,3.77356677
1501,89.7024872,20,5.001145225
1502,21.32352941,20,6.22643323
1503,19.85294118,20,6.22643323
1504,18.38235294,20,6.226421991
1505,16.93926765,20,6.248694708
1506,19.11764706,20,4.999988761
1507,36.02941176,20,6.226431847
1508,34.55882353,20,6.226431847
1509,38.96814696,20,6.252267092
1510,37.5,20,6.226424931
1511,36.76470588,20,4.999990318
1512,47.79061109,20,6.24074792
1513,46.3156605,20,6.250750307
1514,45.57948788,20,5.015337832
1515,44.84252713,20,6.2568397
1516,43.37212284,20,6.264508186
1517,27.20588235,20,6.22643323
1518,25.73529412,20,6.22643323
1519,24.26470588,20,6.22643323
1520,22.79411765,20,6.22643323
1521,25,20,5
1522,33.08823529,20,6.22643323
1523,31.61764706,20,6.22643323
1524,30.14705882,20,6.22643323
1525,28.67647059,20,6.22643323
1526,30.88235294,20,5
1527,2.92142009,20,4.416495128
1528,4.024978371,20,3.797607836
1529,3.179855187,20,3.202425815
1530,97.07761403,20,5.585108272
1531,96.81763448,20,6.801641329
1532,95.97154365,20,6.208062708
1533,71.32352941,20,6.22643323
1534,69.85294118,20,6.22643323
1535,68.38235294,20,6.22643323
1536,66.91176471,20,6.22643323
1537,80.14705882,20,6.22643323
1538,78.67647059,20,6.22643323
1539,83.08823529,20,6.22643323
1540,81.61764706,20,6.22643323
1541,59.55882353,20,6.22643323
1542,58.08823529,20,6.22643323
1543,56.61764706,20,6.22643323
1544,55.14705882,20,6.22643323
1545,61.02941176,20,3.77356677
1546,62.5,20,3.77356677
1547,63.97058824,20,3.77356677
1548,65.44117647,20,3.77356677
1549,72.79411765,20,3.77356677
1550,74.26470588,20,3.77356677
1551,75.73529412,20,3.77356677
1552,77.20588235,20,3.77356677
1553,11.01204728,20,3.768619714
1554,12.48555639,20,3.7622931
1555,13.22147489,20,5.003191556
1556,13.93752501,20,6.253019862
1557,15.46528771,20,6.252839492
1558,72.05882353,20,5
1559,52.20588235,20,3.77356677
1560,53.67647059,20,3.77356677
1561,60.29411765,20,5
1562,37.5,20,3.773558472
1563,38.96947576,20,3.765059208
1564,39.6912347,20,5.013644047
1565,40.42408755,20,6.265927737
1566,41.89253323,20,6.267446919
1567,77.94117647,20,5
1568,84.55882353,20,3.77356677
1569,86.02941176,20,3.77356677
1570,83.82352941,20,5
1571,54.41176471,20,5
1572,66.17647059,20,5
1573,97.37870798,10.14733366,0
1574,2.601793218,10.04643413,0
1575,80.8701685,2.588610197,0
1576,57.34078762,2.549285855,0
1577,66.16430509,2.562033676,0
1578,48.52941176,17.45286646,0
1579,16.16560945,2.546386047,0
1580,25.02339105,17.4663748,0
1581,33.82352941,2.547133541,0
1582,75,17.45286646,0
1583,86.76078201,17.47199243,0
1584,42.64404545,2.54539291,0
1585,63.23529412,17.45286646,0
1586,13.23140763,17.4670247,0
1587,39.73086579,17.46729082,0
1588,25,2.547133541,0
1589,89.69870086,2.558132866,0
1590,33.82352941,17.45286646,0
1591,54.43831278,17.46819399,0
1592,48.52941176,2.547133541,0
1593,69.11764706,17.45286646,0
1594,74.98253758,2.566143034,0
1595,10.29067973,2.544440229,0
1596,80.88235294,17.45286646,0
1597,19.1133928,17.46731228,0
1598,92.67564067,17.55260402,0
1599,7.376955066,17.51856549,0
1600,95.44372291,2.544208984,0
1601,4.485807345,2.461379066,0
1602,97.4407679,15.37098392,0
1603,2.596371858,15.52983559,0
1604,7.34491111,2.534346805,0
1605,8.77246996,5.070023324,0
1606,11.74412125,5.084127886,0
1607,10.25200442,7.605832521,0
1608,13.20666342,7.623051137,0
1609,11.7363022,10.15655387,0
1610,14.67275308,10.1660493,0
1611,8.788460533,10.13866669,0
1612,16.14516597,7.630188743,0
1613,17.60950193,10.17309597,0
1614,19.08258631,7.63404584,0
1615,20.5476588,10.17911006,0
1616,22.02137949,7.638238738,0
1617,23.48707038,10.15131963,0
1618,24.96115537,7.638622725,0
1619,26.45587022,10.13371808,0
1620,27.90632891,7.637057271,0
1621,29.40196411,10.16720414,0
1622,30.8487684,7.644800488,0
1623,32.31535014,10.19382105,0
1624,33.78315202,7.654645088,0
1625,35.25067519,10.20314143,0
1626,36.72440608,7.659651505,0
1627,38.1908897,10.17316624,0
1628,39.67147326,7.654069368,0
1629,41.16323813,10.15297752,0
1630,42.62186895,7.646227564,0
1631,44.11107059,10.18709469,0
1632,45.55960365,7.658001706,0
1633,47.02239263,10.21541946,0
1634,48.49216236,7.671486665,0
1635,49.95715049,10.22558917,0
1636,51.43082732,7.678626868,0
1637,52.89689475,10.19407805,0
1638,54.37135591,7.669300735,0
1639,55.86970926,10.1720726,0
1640,57.31769381,7.667277634,0
1641,58.81695429,10.20886376,0
1642,60.26071978,7.687864907,0
1643,61.72745881,10.24002531,0
1644,63.19710117,7.69260719,0
1645,64.66272126,10.24920866,0
1646,66.13649001,7.69812732,0
1647,67.6026114,10.25485861,0
1648,69.07713988,7.710269884,0
1649,70.54338606,10.26167077,0
1650,72.01636947,7.706153547,0
1651,73.48426541,10.26467194,0
1652,74.95367746,7.70080255,0
1653,76.42474499,10.26747959,0
1654,77.90047331,7.726537964,0
1655,79.36660044,10.2753556,0
1656,80.84138833,7.731685448,0
1657,82.30728676,10.28028718,0
1658,83.78142535,7.737484062,0
1659,85.24714011,10.28492538,0
1660,86.71913812,7.720286649,0
1661,88.18389026,10.28217526,0
1662,89.65274613,7.723209978,0
1663,91.11601563,10.29137977,0
1664,92.57879326,7.755874827,0
1665,10.27093925,12.68911225,0
1666,30.84313789,12.71985984,0
1667,45.54925968,12.74257911,0
1668,60.25549383,12.76523111,0
1669,16.13629246,12.71296121,0
1670,22.03572047,12.64176574,0
1671,36.74030579,12.66146532,0
1672,51.44728897,12.6798789,0
1673,66.12747141,12.80160231,0
1674,89.64742245,12.82292111,0
1675,72.0098163,12.81120034,0
1676,77.89216134,12.82079823,0
1677,83.77367651,12.82779282,0
1678,7.346861559,12.68363508,0
1679,92.62357568,12.7861825,0
1680,85.26051625,5.150461201,0
1681,70.55794217,5.141005842,0
1682,61.74061076,5.123046412,0
1683,52.91566974,5.101744555,0
1684,38.21678857,5.102420442,0
1685,29.3759044,5.100755124,0
1686,20.56533298,5.0923183,0
1687,5.783708962,10.1099027,0
1688,4.438306337,12.67142929,0
1689,4.354706415,7.495563931,0
1690,91.13301719,5.179770991,0
1691,94.0432946,5.188621541,0
1692,95.49874714,7.763674602,0
1693,97.24221702,4.810323108,0
1694,79.38044717,5.162649064,0
1695,7.229483661,7.542853386,0
1696,47.02660623,5.122456786,0
1697,92.6021422,2.57845573,0
1698,94.11728161,10.2669533,0
1699,95.70233,12.75637738,0
1700,94.24516709,15.17609371,0
1701,88.19821246,5.12159886,0
1702,13.22514498,2.547169634,0
1703,89.68972048,17.54479124,0
1704,10.28807375,17.50166272,0
1705,86.71897383,12.82436309,0
1706,82.32624584,5.153003919,0
1707,77.92143303,2.57403738,0
1708,76.43001462,5.136179045,0
1709,80.83291767,12.82535594,0
1710,58.79627422,5.119545704,0
1711,67.62049114,5.128982238,0
1712,72.05882353,17.45286646,0
1713,63.22911042,2.552638263,0
1714,60.28250305,2.557419372,0
1715,55.85521791,5.096538037,0
1716,64.6779432,5.123120322,0
1717,72.05882353,2.547133541,0
1718,69.10614268,2.563192549,0
1719,51.46321011,2.548041422,0
1720,51.49276758,17.50275043,0
1721,36.78508309,17.49971013,0
1722,83.80751562,2.570930414,0
1723,60.29411765,17.45286646,0
1724,57.34863971,17.48865661,0
1725,55.91960492,15.04888845,0
1726,39.70229587,2.548182353,0
1727,41.16423432,5.09599402,0
1728,77.94117647,17.45286646,0
1729,22.04923452,2.546172148,0
1730,45.57935014,2.549801941,0
1731,49.97266197,5.11256995,0
1732,27.93640592,17.48436843,0
1733,26.50119704,15.03192768,0
1734,30.87304711,17.48557895,0
1735,22.07708668,17.49903327,0
1736,42.64249019,17.48651414,0
1737,41.21025923,15.04041152,0
1738,45.57890483,17.48779306,0
1739,30.88235294,2.547133541,0
1740,16.17027781,17.4744339,0
1741,83.82352941,17.45286646,0
1742,66.17647059,17.45286646,0
1743,74.95098882,12.8159993,0
1744,69.06864383,12.80640132,0
1745,63.18629914,12.79680294,0
1746,48.48600894,12.70372507,0
1747,33.77988135,12.68383557,0
1748,36.75496981,2.551687302,0
1749,13.20226885,12.70169635,0
1750,19.07609927,12.68064035,0
1751,35.26095341,5.110269814,0
1752,32.31997027,5.107584491,0
1753,27.93684737,2.543753281,0
1754,14.6820498,5.092843718,0
1755,26.43517431,5.105047283,0
1756,23.50537945,5.094588789,0
1757,19.10537541,2.546964521,0
1758,73.49481968,5.126176728,0
1759,17.62218992,5.09230151,0
1760,54.40317263,2.542765545,0
1761,44.09949338,5.088813507,0
1762,86.74905949,2.56685389,0
1763,5.807678103,5.037230209,0
1764,2.680050486,4.70098275,0
1765,5.857219519,15.16476952,0
1766,8.81107846,15.10417286,0
1767,4.459041837,17.68941583,0
1768,23.52142627,15.04099669,0
1769,11.74399798,15.08848848,0
1770,38.22755869,15.0499261,0
1771,95.53606099,17.6300473,0
1772,52.93472776,15.05904698,0
1773,14.68052479,15.08588181,0
1774,17.61915303,15.08249659,0
1775,20.57381309,15.06870749,0
1776,27.9191281,12.61117404,0
1777,24.98673541,12.60181698,0
1778,29.35976805,15.08120578,0
1779,32.32014344,15.084862,0
1780,42.62607028,12.62685157,0
1781,35.27941696,15.07211093,0
1782,39.69305364,12.61746638,0
1783,44.06525265,15.09319318,0
1784,57.33268124,12.64283802,0
1785,47.02601292,15.09631683,0
1786,49.98603632,15.08243078,0
1787,54.40015115,12.6328005,0
1788,58.78138704,15.09971786,0
1789,61.72008253,15.1093092,0
1790,64.65837414,15.11258775,0
1791,91.1776429,15.1678258,0
1792,67.59942517,15.11501225,0
1793,88.20725725,15.15943162,0
1794,70.54059578,15.11739954,0
1795,85.2545656,15.13149619,0
1796,73.48177167,15.11978521,0
1797,76.4229469,15.12217078,0
1798,79.3641437,15.12453449,0
1799,82.30885376,15.1281086,0
1800,1.927294282,12.79239694,0
1801,97.98181084,7.417898579,0
1802,1.945414142,7.196071614,0
1803,98.10436118,12.79779613,0
1804,2.166747398,2.145205861,0
1805,97.8332526,2.145205861,0
1806,97.89982483,17.92332438,0
1807,2.100175166,17.92332438,0
1808,1.083373699,2.501174359,0
1809,1.083373699,1.07260293,0
1810,2.553961934,1.07260293,0
1811,1.050087583,18.96166219,0
1812,1.050087583,17.53309076,0
1813,2.520675818,18.96166219,0
1814,98.9166263,1.07260293,0
1815,98.9166263,2.501174359,0
1816,97.44603807,1.07260293,0
1817,98.94991242,17.53309076,0
1818,98.94991242,18.96166219,0
1819,97.47932418,18.96166219,0
1820,1.340025243,5.207634232,0
1821,1.340025243,3.779062804,0
1822,2.423398942,3.423094306,0
1823,0.972707071,7.883750093,0
1824,0.972707071,6.455178664,0
1825,2.312732314,5.948527182,0
1826,1.300896609,10.73750278,0
1827,1.300896609,9.308931349,0
1828,2.27360368,8.621252871,0
1829,0.9636471412,13.53905561,0
1830,0.9636471412,12.11048419,0
1831,2.26454375,11.41941554,0
1832,1.298185929,16.33634637,0
1833,1.298185929,14.90777494,0
1834,2.26183307,14.16111627,0
1835,2.348273512,16.72657998,0
1836,98.62110851,3.833732983,0
1837,98.62110851,5.262304411,0
1838,97.53773481,3.477764485,0
1839,98.99090542,6.566092147,0
1840,98.99090542,7.994663575,0
1841,97.61201393,6.114110844,0
1842,98.68935399,9.359381116,0
1843,98.68935399,10.78795254,0
1844,97.68025941,8.78261612,0
1845,99.05218059,12.11318378,0
1846,99.05218059,13.54175521,0
1847,97.74153458,11.4725649,0
1848,98.72038395,14.8283491,0
1849,98.72038395,16.25692053,0
1850,97.77256454,14.08439003,0
1851,97.67029637,16.64715415,0
1852,3.713491908,1.230689533,0
1853,5.184080143,1.230689533,0
1854,3.326277372,2.303292463,0
1855,6.613632026,1.267173403,0
1856,8.084220261,1.267173403,0
1857,5.915359228,2.497862936,0
1858,9.557104571,1.272220115,0
1859,11.02769281,1.272220115,0
1860,8.81779542,2.539393517,0
1861,12.49492543,1.273584817,0
1862,13.96551367,1.273584817,0
1863,11.75791236,2.545804932,0
1864,15.4357459,1.273193023,0
1865,16.90633414,1.273193023,0
1866,14.69537721,2.54677784,0
1867,18.37621712,1.27348226,0
1868,19.84680535,1.27348226,0
1869,17.63549243,2.546675284,0
1870,21.31873491,1.273086074,0
1871,22.78932314,1.273086074,0
1872,20.57730497,2.546568335,0
1873,24.26470588,1.27356677,0
1874,25.73529412,1.27356677,0
1875,23.52461726,2.546652844,0
1876,27.2037178,1.27187664,0
1877,28.67430604,1.27187664,0
1878,26.46842369,2.545443411,0
1879,30.14705882,1.27356677,0
1880,31.61764706,1.27356677,0
1881,29.40960016,2.545443411,0
1882,33.08823529,1.27356677,0
1883,34.55882353,1.27356677,0
1884,32.35294118,2.547133541,0
1885,36.02454373,1.275843651,0
1886,37.49513197,1.275843651,0
1887,35.28924961,2.549410421,0
1888,38.96879499,1.274091176,0
1889,40.43938323,1.274091176,0
1890,38.22863284,2.549934828,0
1891,41.91025802,1.272696455,0
1892,43.38084625,1.272696455,0
1893,41.17317066,2.546787631,0
1894,44.8484986,1.274900971,0
1895,46.31908683,1.274900971,0
1896,44.11169779,2.547597426,0
1897,47.79411765,1.27356677,0
1898,49.26470588,1.27356677,0
1899,47.05438095,2.548467741,0
1900,50.73160505,1.274020711,0
1901,52.20219329,1.274020711,0
1902,49.99631094,2.547587481,0
1903,53.67217455,1.271382772,0
1904,55.14276278,1.271382772,0
1905,52.93319137,2.545403483,0
1906,56.61157028,1.274642927,0
1907,58.08215852,1.274642927,0
1908,55.87198013,2.5460257,0
1909,59.55301623,1.278709686,0
1910,61.02360447,1.278709686,0
1911,58.81164534,2.553352613,0
1912,62.49690815,1.276319131,0
1913,63.96749639,1.276319131,0
1914,61.75580674,2.555028817,0
1915,65.43509372,1.281016838,0
1916,66.90568196,1.281016838,0
1917,64.69670775,2.557335969,0
1918,68.37660075,1.281596275,0
1919,69.84718898,1.281596275,0
1920,67.63522388,2.562613113,0
1921,71.32352941,1.27356677,0
1922,72.79411765,1.27356677,0
1923,70.5824831,2.555163045,0
1924,74.25597467,1.283071517,0
1925,75.72656291,1.283071517,0
1926,73.52068056,2.556638287,0
1927,77.19601063,1.28701869,0
1928,78.66659887,1.28701869,0
1929,76.4519853,2.570090207,0
1930,80.1409666,1.294305099,0
1931,81.61155484,1.294305099,0
1932,79.39580076,2.581323788,0
1933,83.0802284,1.285465207,0
1934,84.55081663,1.285465207,0
1935,82.33884206,2.579770306,0
1936,86.02158857,1.283426945,0
1937,87.49217681,1.283426945,0
1938,85.27828756,2.568892152,0
1939,88.96699749,1.279066433,0
1940,90.43758573,1.279066433,0
1941,88.22388018,2.562493378,0
1942,91.88930639,1.289227865,0
1943,93.35989463,1.289227865,0
1944,91.15042153,2.568294298,0
1945,94.78068498,1.272104492,0
1946,96.25127322,1.272104492,0
1947,94.02293256,2.561332357,0
1948,96.63848776,2.344707422,0
1949,5.170697389,18.84470791,0
1950,3.700109154,18.84470791,0
1951,3.279608501,17.8063701,0
1952,8.100242239,18.75928275,0
1953,6.629654004,18.75928275,0
1954,5.917998451,17.60399066,0
1955,11.02638982,18.75083136,0
1956,9.555801583,18.75083136,0
1957,8.83251441,17.51011411,0
1958,13.96864499,18.73351235,0
1959,12.49805676,18.73351235,0
1960,11.75974069,17.48434371,0
1961,16.90866831,18.73721695,0
1962,15.43808008,18.73721695,0
1963,14.70084272,17.4707293,0
1964,19.85081405,18.73365614,0
1965,18.38022581,18.73365614,0
1966,17.6418353,17.47087309,0
1967,22.80324922,18.74951663,0
1968,21.33266098,18.74951663,0
1969,20.59523974,17.48317277,0
1970,25.74698964,18.7331874,0
1971,24.27640141,18.7331874,0
1972,23.55023886,17.48270403,0
1973,28.67408531,18.74218422,0
1974,27.20349708,18.74218422,0
1975,26.47989849,17.47537162,0
1976,31.61299414,18.74278948,0
1977,30.14240591,18.74278948,0
1978,29.40472652,17.48497369,0
1979,34.55882353,18.72643323,0
1980,33.08823529,18.72643323,0
1981,32.34828826,17.46922271,0
1982,37.5101886,18.74985507,0
1983,36.03960037,18.74985507,0
1984,35.30430625,17.4762883,0
1985,40.45366819,18.73364541,0
1986,38.98307995,18.73364541,0
1987,38.25797444,17.48350048,0
1988,43.38006862,18.74325707,0
1989,41.90948039,18.74325707,0
1990,41.18667799,17.47690248,0
1991,46.31886418,18.74389653,0
1992,44.84827595,18.74389653,0
1993,44.11069751,17.4871536,0
1994,49.26470588,18.72643323,0
1995,47.79411765,18.72643323,0
1996,47.0541583,17.47032976,0
1997,52.21697203,18.75137522,0
1998,50.74638379,18.75137522,0
1999,50.01108967,17.47780845,0
2000,55.16033286,18.734097,0
2001,53.68974462,18.734097,0
2002,52.96554018,17.48547221,0
2003,58.08608456,18.7443283,0
2004,56.61549632,18.7443283,0
2005,55.89347624,17.4784253,0
2006,61.02941176,18.72643323,0
2007,59.55882353,18.72643323,0
2008,58.82137868,17.47076153,0
2009,63.97058824,18.72643323,0
2010,62.5,18.72643323,0
2011,61.76470588,17.45286646,0
2012,66.91176471,18.72643323,0
2013,65.44117647,18.72643323,0
2014,64.70588235,17.45286646,0
2015,69.85294118,18.72643323,0
2016,68.38235294,18.72643323,0
2017,67.64705882,17.45286646,0
2018,72.79411765,18.72643323,0
2019,71.32352941,18.72643323,0
2020,70.58823529,17.45286646,0
2021,75.73529412,18.72643323,0
2022,74.26470588,18.72643323,0
2023,73.52941176,17.45286646,0
2024,78.67647059,18.72643323,0
2025,77.20588235,18.72643323,0
2026,76.47058824,17.45286646,0
2027,81.61764706,18.72643323,0
2028,80.14705882,18.72643323,0
2029,79.41176471,17.45286646,0
2030,84.55882353,18.72643323,0
2031,83.08823529,18.72643323,0
2032,82.35294118,17.45286646,0
2033,87.49803807,18.73599621,0
2034,86.02744983,18.73599621,0
2035,85.29215571,17.46242944,0
2036,90.43309553,18.77239562,0
2037,88.9625073,18.77239562,0
2038,88.22525125,17.50839183,0
2039,93.39664386,18.77630201,0
2040,91.92605563,18.77630201,0
2041,91.18268057,17.54869763,0
2042,96.29744226,18.81502365,0
2043,94.82685403,18.81502365,0
2044,94.10585083,17.59132566,0
2045,96.71794291,17.77668584,0
2046,96.43872756,8.955504131,0
2047,94.80801437,9.015313951,0
2048,95.74799479,10.20714348,0
2049,96.74027899,7.590786591,0
2050,94.9098058,11.51166534,0
2051,96.54051899,11.45185552,0
2052,96.90334559,12.77708676,0
2053,4.19275109,10.07816842,0
2054,3.520049777,11.35893171,0
2055,5.111007649,11.390666,0
2056,5.069207688,8.802733317,0
2057,3.478249816,8.770999029,0
2058,3.18280031,12.73191312,0
2059,3.150060278,7.345817773,0
2060,80.12530784,3.875629631,0
2061,80.8533465,5.157826492,0
2062,81.59820717,3.870807058,0
2063,78.6509401,3.868343222,0
2064,83.06688073,3.861967167,0
2065,58.06853092,3.834415779,0
2066,59.53938864,3.838482538,0
2067,56.59800276,3.822911946,0
2068,57.32574606,5.108041871,0
2069,55.12919527,3.819651791,0
2070,66.89239812,3.845507957,0
2071,65.42112415,3.842576999,0
2072,66.14921717,5.12605128,0
2073,68.36331691,3.846087394,0
2074,63.95352681,3.837879292,0
2075,50.73940195,16.29259061,0
2076,49.25772404,16.26764862,0
2077,47.77771234,16.27459165,0
2078,46.30245888,16.29205495,0
2079,48.50602462,15.08937381,0
2080,13.95359739,3.820006676,0
2081,15.42382962,3.819614882,0
2082,16.15211986,5.092572614,0
2083,16.89389968,3.819343778,0
2084,18.36378266,3.819633015,0
2085,27.21880148,16.25814806,0
2086,25.76229405,16.24915124,0
2087,25.01131166,15.03646219,0
2088,24.27240866,16.25368575,0
2089,22.79925647,16.27001498,0
2090,31.6011616,3.827359016,0
2091,33.07174984,3.827359016,0
2092,34.54224141,3.828701677,0
2093,36.00796161,3.830978558,0
2094,33.79046184,5.108927153,0
2095,74.24088583,16.28632584,0
2096,72.7702976,16.28632584,0
2097,77.18206168,16.28751862,0
2098,75.71147345,16.28751862,0
2099,74.95235928,15.120978,0
2100,88.94848887,16.35211143,0
2101,87.48401963,16.31571202,0
2102,86.00767381,16.30174431,0
2103,84.53904751,16.29218133,0
2104,86.73091143,15.1454639,0
2105,40.43326509,3.822088187,0
2106,41.90413988,3.820693465,0
2107,42.63186385,5.092403764,0
2108,43.37176941,3.817103208,0
2109,44.83942176,3.819307724,0
2110,62.47768832,16.28108783,0
2111,61.00710009,16.28108783,0
2112,65.41742237,16.28272711,0
2113,63.94683413,16.28272711,0
2114,63.18922834,15.11094848,0
2115,12.48770281,16.27775659,0
2116,11.01603587,16.2950756,0
2117,15.4254013,16.28015786,0
2118,13.95596621,16.27645325,0
2119,13.21226138,15.08718514,0
2120,38.97921224,16.25860846,0
2121,37.50632089,16.27481812,0
2122,41.92637471,16.26346283,0
2123,40.47056251,16.25385117,0
2124,39.71890896,15.04516881,0
2125,22.77730699,3.820380469,0
2126,24.25268972,3.820861165,0
2127,25.71758715,3.826090412,0
2128,27.18601084,3.824400282,0
2129,24.97027688,5.099818036,0
2130,90.41585903,3.868951929,0
2131,91.8675797,3.879113361,0
2132,88.94845666,3.839865863,0
2133,89.66561482,5.150684926,0
2134,87.47363597,3.844226375,0
2135,36.03225003,16.28591053,0
2136,34.55147319,16.26248869,0
2137,33.07183643,16.26886423,0
2138,31.59659528,16.28522048,0
2139,33.7997802,15.07848647,0
2140,53.68652027,16.26362048,0
2141,52.21374767,16.2808987,0
2142,56.63412231,16.26877253,0
2143,55.17895885,16.25854122,0
2144,54.42716634,15.05396772,0
2145,47.778009,3.834795163,0
2146,46.30297818,3.836129363,0
2147,48.4996341,5.117513368,0
2148,49.25103687,3.829851745,0
2149,50.71793604,3.830305686,0
2150,71.29970965,16.285133,0
2151,69.82912142,16.285133,0
2152,68.35853612,16.28393935,0
2153,66.88794788,16.28393935,0
2154,69.07001048,15.11620589,0
2155,75.7062761,3.85116104,0
2156,77.17572382,3.855108212,0
2157,74.23867863,3.846159881,0
2158,74.96241715,5.131177887,0
2159,72.7768216,3.836655134,0
2160,8.058690535,3.802185065,0
2161,9.531574845,3.807231777,0
2162,10.2582956,5.077075605,0
2163,11.01740049,3.814284058,0
2164,12.48463312,3.81564876,0
2165,80.12324832,16.28870048,0
2166,78.65266008,16.28870048,0
2167,83.06619158,16.29048753,0
2168,81.59560335,16.29048753,0
2169,80.83649873,15.12632155,0
2170,21.32544988,16.28387038,0
2171,19.84360294,16.26800988,0
2172,18.36627291,16.27490443,0
2173,16.89471542,16.27846525,0
2174,19.09648306,15.07560204,0
2175,93.46040388,16.36434887,0
2176,94.89061404,16.40307051,0
2177,92.71140499,15.17195975,0
2178,91.92664178,16.36021491,0
2179,90.43368169,16.35630852,0
2180,9.549576108,16.30291779,0
2181,8.094016763,16.31136917,0
2182,6.617087293,16.3416675,0
2183,7.33414899,15.13447119,0
2184,5.158130678,16.42709267,0
2185,94.74350875,3.866415262,0
2186,95.64275581,4.999472325,0
2187,96.34296996,3.677266046,0
2188,93.3227184,3.883538636,0
2189,5.146742724,3.749304638,0
2190,6.576294607,3.785788507,0
2191,3.582928916,3.581180908,0
2192,4.243864295,4.86910648,0
2193,96.57154895,14.06368065,0
2194,94.97374854,13.96623554,0
2195,95.84296749,15.27353882,0
2196,96.48841445,16.50051561,0
2197,3.517339097,14.10063244,0
2198,4.226795688,15.34730255,0
2199,5.147762928,13.9180994,0
2200,3.527706847,16.60962571,0
2201,7.290074032,5.053626767,0
2202,9.512237189,6.337927922,0
2203,10.99806283,6.344980203,0
2204,8.00097681,6.306438355,0
2205,8.740744039,7.574342953,0
2206,6.518580882,6.290041797,0
2207,11.72933392,7.614441829,0
2208,12.47539234,6.353589511,0
2209,13.94435661,6.357947427,0
2210,13.21308552,5.088485802,0
2211,10.99415331,8.881193195,0
2212,12.47148281,8.889802504,0
2213,9.520232475,8.872249606,0
2214,10.26238136,10.14761028,0
2215,8.008972097,8.840760038,0
2216,13.20452764,10.16130159,0
2217,13.93970825,8.894550221,0
2218,15.40895953,8.898119024,0
2219,14.6759147,7.62661994,0
2220,15.41360788,6.361516231,0
2221,12.46928552,11.42912511,0
2222,13.93751097,11.43387283,0
2223,9.529699891,11.41388947,0
2224,11.00362072,11.42283306,0
2225,11.73660405,12.6954043,0
2226,16.1411275,10.16957264,0
2227,16.87733395,8.901642359,0
2228,15.40452277,11.43950526,0
2229,16.87289719,11.44302859,0
2230,14.66928065,12.70732878,0
2231,8.067661046,11.41115089,0
2232,8.808900404,12.68637367,0
2233,7.286084747,10.1242847,0
2234,6.56528526,11.39676889,0
2235,6.506596311,8.826378045,0
2236,18.34604412,8.903570907,0
2237,17.61387614,7.632117292,0
2238,18.35238811,6.363173675,0
2239,16.88367794,6.361245127,0
2240,19.07858036,10.17610302,0
2241,19.81512256,8.906577948,0
2242,18.3428006,11.42686816,0
2243,19.81187904,11.4298752,0
2244,17.60619586,12.69680078,0
2245,21.28451915,8.908674397,0
2246,20.5519829,7.636142289,0
2247,21.29335623,6.365278519,0
2248,19.82395964,6.36318207,0
2249,19.09376145,5.092309905,0
2250,22.01736459,10.16521485,0
2251,22.75422494,8.894779186,0
2252,21.29168964,11.4104379,0
2253,22.76139542,11.39654269,0
2254,20.55590987,12.66120305,0
2255,24.22411287,8.894971179,0
2256,23.49126743,7.638430731,0
2257,24.23326741,6.366605757,0
2258,22.76337947,6.366413763,0
2259,22.03535621,5.093453544,0
2260,24.9714703,10.14251886,0
2261,25.7085128,8.886170403,0
2262,24.2369029,11.37656831,0
2263,25.72130282,11.36776753,0
2264,23.51122794,12.62179136,0
2265,27.18109957,8.885387676,0
2266,26.43374214,7.637839998,0
2267,27.17075161,6.371052277,0
2268,25.69816484,6.371835004,0
2269,27.92891717,10.15046111,0
2270,28.65414651,8.902130705,0
2271,27.18749916,11.37244606,0
2272,28.66054611,11.38918909,0
2273,26.45293176,12.60649551,0
2274,30.12536625,8.906002313,0
2275,29.37754865,7.64092888,0
2276,30.1123364,6.372777806,0
2277,28.64111665,6.368906198,0
2278,27.90553935,5.102901204,0
2279,30.85865712,10.18051259,0
2280,31.58205927,8.919310767,0
2281,30.122551,11.44353199,0
2282,31.57924402,11.45684044,0
2283,29.381133,12.66551694,0
2284,33.04925108,8.924233066,0
2285,32.31596021,7.649722788,0
2286,33.05156114,6.381114789,0
2287,31.58436933,6.376192489,0
2288,30.84793733,5.104169808,0
2289,33.78301267,10.19848124,0
2290,34.51691361,8.928893257,0
2291,33.04761574,11.43882831,0
2292,34.51527827,11.4434885,0
2293,32.31150962,12.70184771,0
2294,35.98754064,8.931396466,0
2295,35.25377905,7.657148296,0
2296,35.99267975,6.38496066,0
2297,34.52205272,6.382457451,0
2298,36.72078245,10.18815383,0
2299,37.45764789,8.916408871,0
2300,35.99549049,11.43230337,0
2301,37.46559774,11.41731578,0
2302,35.26009357,12.67265044,0
2303,38.93118148,8.913617802,0
2304,38.19793967,7.656860436,0
2305,38.94413091,6.378244905,0
2306,37.47059733,6.381035974,0
2307,36.73887099,5.106345128,0
2308,39.67706392,10.16307188,0
2309,40.41735569,8.903523444,0
2310,38.94197167,11.39531631,0
2311,40.42814588,11.38522195,0
2312,38.21667971,12.63946585,0
2313,41.89255354,8.899602542,0
2314,41.1466711,7.650148466,0
2315,41.89305163,6.371110792,0
2316,40.41785379,6.375031694,0
2317,39.69051145,5.099207231,0
2318,42.63715436,10.17003611,0
2319,43.36646977,8.916661128,0
2320,41.89465421,11.38991455,0
2321,43.36857043,11.40697313,0
2322,41.15956196,12.62215897,0
2323,44.83533712,8.922548199,0
2324,44.0907363,7.652114635,0
2325,44.82954851,6.373407606,0
2326,43.36068116,6.367520535,0
2327,45.56673161,10.20125708,0
2328,46.29099814,8.936710584,0
2329,44.83016514,11.4648369,0
2330,46.28582616,11.47899929,0
2331,44.08766498,12.68471534,0
2332,47.75727749,8.943453063,0
2333,47.025883,7.664744185,0
2334,47.75938429,6.396971725,0
2335,46.29310494,6.390229246,0
2336,45.56304981,5.105635146,0
2337,48.48977156,10.22050431,0
2338,49.22465642,8.948537916,0
2339,47.75420079,11.45957227,0
2340,49.22157972,11.46465712,0
2341,47.01763431,12.72315209,0
2342,50.6939889,8.952108017,0
2343,49.96149484,7.675056766,0
2344,50.70174465,6.395598409,0
2345,49.23241216,6.392028307,0
2346,51.42702262,10.20983361,0
2347,52.16386104,8.936352461,0
2348,50.70221973,11.45273403,0
2349,52.17209186,11.43697848,0
2350,49.96664896,12.69180199,0
2351,53.63412533,8.931689394,0
2352,52.90109161,7.673963801,0
2353,53.64351283,6.385522645,0
2354,52.17324853,6.390185711,0
2355,51.44416586,5.107157252,0
2356,54.38330201,10.18307532,0
2357,55.12053259,8.920686665,0
2358,53.64852295,11.41343928,0
2359,55.13493021,11.40243655,0
2360,52.92372006,12.6563397,0
2361,56.59370153,8.919675115,0
2362,55.84452486,7.668289184,0
2363,56.58645586,6.381907835,0
2364,55.11328691,6.382919386,0
2365,54.38544382,5.099141296,0
2366,57.34333178,10.19046818,0
2367,58.06732405,8.938070695,0
2368,56.60119525,11.40745531,0
2369,58.07481776,11.42585089,0
2370,55.86641619,12.63781926,0
2371,59.53883704,8.948364331,0
2372,58.7892068,7.67757127,0
2373,59.528497,6.403705305,0
2374,58.05698401,6.393411669,0
2375,60.27220655,10.22444453,0
2376,60.9940893,8.963945108,0
2377,59.53622406,11.48704744,0
2378,60.99147632,11.50262821,0
2379,58.79408754,12.70403457,0
2380,62.46227999,8.96631625,0
2381,61.72891048,7.690236048,0
2382,62.46885596,6.407826801,0
2383,61.00066527,6.405455659,0
2384,60.26844249,5.121296058,0
2385,63.19509003,10.24461699,0
2386,63.92991122,8.970907927,0
2387,62.45687897,11.51841412,0
2388,63.9245102,11.5230058,0
2389,61.72089649,12.78101703,0
2390,65.39960564,8.973667993,0
2391,64.66679559,7.695367255,0
2392,65.40721661,6.410623821,0
2393,63.93752219,6.407863756,0
2394,63.20927698,5.123083367,0
2395,66.13266633,10.25203364,0
2396,66.8695507,8.976492965,0
2397,65.39509634,11.52540549,0
2398,66.8650414,11.52823046,0
2399,64.65688528,12.79920263,0
2400,68.33987564,8.982564247,0
2401,67.60681495,7.704198602,0
2402,68.34881551,6.419626061,0
2403,66.87849058,6.413554779,0
2404,69.07299873,10.25826469,0
2405,69.81026297,8.985970327,0
2406,68.33562761,11.53062996,0
2407,69.80601494,11.53403604,0
2408,67.59805762,12.80400181,0
2409,71.27987776,8.983912158,0
2410,70.54675468,7.708211716,0
2411,71.28715582,6.423579695,0
2412,69.81754103,6.425637863,0
2413,69.08921666,5.13499404,0
2414,72.01382574,10.26317136,0
2415,72.75031744,8.985412744,0
2416,71.27660118,11.53643555,0
2417,72.74704086,11.53793614,0
2418,70.53923006,12.80880083,0
2419,74.21897144,8.982737246,0
2420,73.48502346,7.703478049,0
2421,74.22424857,6.413489639,0
2422,72.75559457,6.416165138,0
2423,72.02638093,5.133591285,0
2424,74.9545052,10.26607577,0
2425,75.68921122,8.98414107,0
2426,74.21762712,11.54033562,0
2427,75.68786691,11.54173944,0
2428,73.48040256,12.81359982,0
2429,77.16260915,8.997008777,0
2430,76.42707538,7.713670257,0
2431,77.16524396,6.431358505,0
2432,75.69184604,6.418490798,0
2433,77.89567272,10.2714176,0
2434,78.63353688,9.000946783,0
2435,77.15845317,11.54413891,0
2436,78.62938089,11.54807692,0
2437,76.42157508,12.81839877,0
2438,80.10399439,9.003520525,0
2439,79.37093082,7.729111706,0
2440,80.11091775,6.447167256,0
2441,78.64046024,6.444593514,0
2442,77.90523089,5.149414055,0
2443,80.8369436,10.27782139,0
2444,81.57433754,9.005986316,0
2445,80.09975905,11.55035577,0
2446,81.57010221,11.55282156,0
2447,79.36253951,12.82307709,0
2448,83.04435605,9.008885623,0
2449,82.31140684,7.734584755,0
2450,83.05383559,6.44524399,0
2451,81.58381708,6.442344683,0
2452,83.77721343,10.28260628,0
2453,84.51428273,9.011204721,0
2454,83.04048164,11.55404,0
2455,84.51040831,11.5563591,0
2456,82.30329709,12.82657438,0
2457,85.98313911,9.002606014,0
2458,85.25028173,7.728885355,0
2459,85.98982718,6.435373925,0
2460,84.5209708,6.443972632,0
2461,83.79338104,5.15173256,0
2462,86.71551518,10.28355032,0
2463,87.45151419,9.001230957,0
2464,85.98305697,11.55464423,0
2465,87.45143204,11.55326918,0
2466,85.24632517,12.82607795,0
2467,88.91831819,9.002692621,0
2468,88.18594212,7.721748313,0
2469,88.92547929,6.422404419,0
2470,87.45867529,6.420942754,0
2471,86.72936435,5.136030031,0
2472,89.64995294,10.28677752,0
2473,90.38438088,9.007294872,0
2474,88.91565635,11.55254819,0
2475,90.38171904,11.55715044,0
2476,88.18319814,12.8236421,0
2477,91.84740444,9.023627297,0
2478,91.11576969,7.739542403,0
2479,91.85590523,6.467822909,0
2480,90.39288166,6.451490485,0
2481,92.61664862,10.27916653,0
2482,93.34803743,9.011414063,0
2483,91.13549906,12.80455181,0
2484,91.86979566,11.53878113,0
2485,93.37042865,11.5265679,0
2486,93.31104393,6.472248184,0
2487,92.5881559,5.184196266,0
2488,94.0387702,7.759774715,0
2489,94.77102087,6.476148072,0
2490,8.07897001,13.89390397,0
2491,9.541008855,13.89664255,0
2492,11.00746862,13.88880036,0
2493,12.47313342,13.89509242,0
2494,10.27753822,15.09633067,0
2495,31.58164067,13.90236092,0
2496,33.0500124,13.88434878,0
2497,28.63944808,13.84618991,0
2498,30.10145297,13.90053281,0
2499,30.83995575,15.08303389,0
2500,46.2876363,13.91944797,0
2501,47.75601093,13.90002095,0
2502,43.34566146,13.86002238,0
2503,44.80725617,13.91788615,0
2504,45.54563279,15.09475501,0
2505,60.98778818,13.93727016,0
2506,62.45319084,13.95305607,0
2507,58.05703414,13.87127794,0
2508,59.51844044,13.93247449,0
2509,60.25073478,15.10451353,0
2510,13.94139682,13.89378908,0
2511,15.40840862,13.89942151,0
2512,16.87772274,13.8977289,0
2513,18.34762615,13.88156847,0
2514,16.14983891,15.0841892,0
2515,19.82495618,13.87467392,0
2516,21.30476678,13.85523661,0
2517,22.77857337,13.84138122,0
2518,22.04761968,15.05485209,0
2519,24.25408084,13.82140684,0
2520,34.52964915,13.87797325,0
2521,36.00986137,13.86678812,0
2522,37.48393224,13.85569571,0
2523,36.75348782,15.06101851,0
2524,38.96030616,13.83369624,0
2525,49.23602263,13.89307793,0
2526,50.71666265,13.88115484,0
2527,52.19100837,13.86946294,0
2528,51.46038204,15.07073888,0
2529,53.66743946,13.84592374,0
2530,66.86344829,13.95830728,0
2531,68.3340345,13.96070678,0
2532,63.92233664,13.95469535,0
2533,65.39292278,13.95709503,0
2534,66.12889966,15.1138,0
2535,90.41253267,13.99537346,0
2536,91.90060929,13.97700415,0
2537,87.46311554,13.99189735,0
2538,88.92733985,13.99117636,0
2539,89.69245008,15.16362871,0
2540,72.74579398,13.96549278,0
2541,74.21638024,13.96789226,0
2542,69.8046198,13.96190043,0
2543,71.27520604,13.96429994,0
2544,72.01118372,15.11859238,0
2545,78.62815252,13.97266636,0
2546,80.09853068,13.97494522,0
2547,75.68696786,13.96908504,0
2548,77.15755412,13.97148451,0
2549,77.8935453,15.12335264,0
2550,84.51412106,13.97964451,0
2551,85.98676972,13.97792964,0
2552,81.57088571,13.97673227,0
2553,83.04126513,13.97795071,0
2554,83.78170968,15.1298024,0
2555,5.892583948,12.67753218,0
2556,6.602040539,13.9242023,0
2557,94.16295284,12.77127994,0
2558,93.43437138,13.9811381,0
2559,86.00478787,3.858657546,0
2560,84.53401594,3.860695808,0
2561,69.83204242,3.852099196,0
2562,71.30838285,3.844069691,0
2563,61.01155691,3.840232892,0
2564,62.48486059,3.837842337,0
2565,53.65942118,3.82225505,0
2566,52.18943992,3.824892989,0
2567,38.95954222,3.825301398,0
2568,37.48587919,3.827053872,0
2569,30.12912867,3.823944333,0
2570,28.65637589,3.822254203,0
2571,21.30728375,3.819245224,0
2572,19.83535419,3.81964141,0
2573,5.792095038,7.519208658,0
2574,5.081192259,6.26639707,0
2575,3.51737845,6.098273341,0
2576,96.37048208,6.286998855,0
2577,59.53775234,16.27629216,0
2578,58.06501337,16.29418723,0
2579,57.35049598,15.07430316,0
2580,55.15987804,13.84084448,0
2581,56.62614308,13.84586324,0
2582,28.64808699,16.28278711,0
2583,27.93048255,15.05656673,0
2584,30.11640758,16.28339237,0
2585,25.74396623,13.81687233,0
2586,27.21016257,13.82155086,0
2587,43.35387142,16.28985366,0
2588,42.63775594,15.06680235,0
2589,44.82207874,16.29049312,0
2590,40.45165643,13.82893895,0
2591,41.91816475,13.83363154,0
2592,97.37870798,10.14733366,10
2593,2.601793218,10.04643413,10
2594,80.8701685,2.588610197,10
2595,57.34078762,2.549285855,10
2596,66.16430509,2.562033676,10
2597,48.52941176,17.45286646,10
2598,16.16560945,2.546386047,10
2599,25.02339105,17.4663748,10
2600,33.82352941,2.547133541,10
2601,75,17.45286646,10
2602,86.76078201,17.47199243,10
2603,42.64404545,2.54539291,10
2604,63.23529412,17.45286646,10
2605,13.23140763,17.4670247,10
2606,39.73086579,17.46729082,10
2607,25,2.547133541,10
2608,89.69870086,2.558132866,10
2609,33.82352941,17.45286646,10
2610,54.43831278,17.46819399,10
2611,48.52941176,2.547133541,10
2612,69.11764706,17.45286646,10
2613,74.98253758,2.566143034,10
2614,10.29067973,2.544440229,10
2615,80.88235294,17.45286646,10
2616,19.1133928,17.46731228,10
2617,92.67564067,17.55260402,10
2618,7.376955066,17.51856549,10
2619,95.44372291,2.544208984,10
2620,4.485807345,2.461379066,10
2621,97.4407679,15.37098392,10
2622,2.596371858,15.52983559,10
2623,7.34491111,2.534346805,10
2624,8.77246996,5.070023324,10
2625,11.74412125,5.084127886,10
2626,10.25200442,7.605832521,10
2627,13.20666342,7.623051137,10
2628,11.7363022,10.15655387,10
2629,14.67275308,10.1660493,10
2630,8.788460533,10.13866669,10
2631,16.14516597,7.630188743,10
2632,17.60950193,10.17309597,10
2633,19.08258631,7.63404584,10
2634,20.5476588,10.17911006,10
2635,22.02137949,7.638238738,10
2636,23.48707038,10.15131963,10
2637,24.96115537,7.638622725,10
2638,26.45587022,10.13371808,10
2639,27.90632891,7.637057271,10
2640,29.40196411,10.16720414,10
2641,30.8487684,7.644800488,10
2642,32.31535014,10.19382105,10
2643,33.78315202,7.654645088,10
2644,35.25067519,10.20314143,10
2645,36.72440608,7.659651505,10
2646,38.1908897,10.17316624,10
2647,39.67147326,7.654069368,10
2648,41.16323813,10.15297752,10
2649,42.62186895,7.646227564,10
2650,44.11107059,10.18709469,10
2651,45.55960365,7.658001706,10
2652,47.02239263,10.21541946,10
2653,48.49216236,7.671486665,10
2654,49.95715049,10.22558917,10
2655,51.43082732,7.678626868,10
2656,52.89689475,10.19407805,10
2657,54.37135591,7.669300735,10
2658,55.86970926,10.1720726,10
2659,57.31769381,7.667277634,10
2660,58.81695429,10.20886376,10
2661,60.26071978,7.687864907,10
2662,61.72745881,10.24002531,10
2663,63.19710117,7.69260719,10
2664,64.66272126,10.24920866,10
2665,66.13649001,7.69812732,10
2666,67.6026114,10.25485861,10
2667,69.07713988,7.710269884,10
2668,70.54338606,10.26167077,10
2669,72.01636947,7.706153547,10
2670,73.48426541,10.26467194,10
2671,74.95367746,7.70080255,10
2672,76.42474499,10.26747959,10
2673,77.90047331,7.726537964,10
2674,79.36660044,10.2753556,10
2675,80.84138833,7.731685448,10
2676,82.30728676,10.28028718,10
2677,83.78142535,7.737484062,10
2678,85.24714011,10.28492538,10
2679,86.71913812,7.720286649,10
2680,88.18389026,10.28217526,10
2681,89.65274613,7.723209978,10
2682,91.11601563,10.29137977,10
2683,92.57879326,7.755874827,10
2684,10.27093925,12.68911225,10
2685,30.84313789,12.71985984,10
2686,45.54925968,12.74257911,10
2687,60.25549383,12.76523111,10
2688,16.13629246,12.71296121,10
2689,22.03572047,12.64176574,10
2690,36.74030579,12.66146532,10
2691,51.44728897,12.6798789,10
2692,66.12747141,12.80160231,10
2693,89.64742245,12.82292111,10
2694,72.0098163,12.81120034,10
2695,77.89216134,12.82079823,10
2696,83.77367651,12.82779282,10
2697,7.346861559,12.68363508,10
2698,92.62357568,12.7861825,10
2699,85.26051625,5.150461201,10
2700,70.55794217,5.141005842,10
2701,61.74061076,5.123046412,10
2702,52.91566974,5.101744555,10
2703,38.21678857,5.102420442,10
2704,29.3759044,5.100755124,10
2705,20.56533298,5.0923183,10
2706,5.783708962,10.1099027,10
2707,4.438306337,12.67142929,10
2708,4.354706415,7.495563931,10
2709,91.13301719,5.179770991,10
2710,94.0432946,5.188621541,10
2711,95.49874714,7.763674602,10
2712,97.24221702,4.810323108,10
2713,79.38044717,5.162649064,10
2714,7.229483661,7.542853386,10
2715,47.02660623,5.122456786,10
2716,92.6021422,2.57845573,10
2717,94.11728161,10.2669533,10
2718,95.70233,12.75637738,10
2719,94.24516709,15.17609371,10
2720,88.19821246,5.12159886,10
2721,13.22514498,2.547169634,10
2722,89.68972048,17.54479124,10
2723,10.28807375,17.50166272,10
2724,86.71897383,12.82436309,10
2725,82.32624584,5.153003919,10
2726,77.92143303,2.57403738,10
2727,76.43001462,5.136179045,10
2728,80.83291767,12.82535594,10
2729,58.79627422,5.119545704,10
2730,67.62049114,5.128982238,10
2731,72.05882353,17.45286646,10
2732,63.22911042,2.552638263,10
2733,60.28250305,2.557419372,10
2734,55.85521791,5.096538037,10
2735,64.6779432,5.123120322,10
2736,72.05882353,2.547133541,10
2737,69.10614268,2.563192549,10
2738,51.46321011,2.548041422,10
2739,51.49276758,17.50275043,10
2740,36.78508309,17.49971013,10
2741,83.80751562,2.570930414,10
2742,60.29411765,17.45286646,10
2743,57.34863971,17.48865661,10
2744,55.91960492,15.04888845,10
2745,39.70229587,2.548182353,10
2746,41.16423432,5.09599402,10
2747,77.94117647,17.45286646,10
2748,22.04923452,2.546172148,10
2749,45.57935014,2.549801941,10
2750,49.97266197,5.11256995,10
2751,27.93640592,17.48436843,10
2752,26.50119704,15.03192768,10
2753,30.87304711,17.48557895,10
2754,22.07708668,17.49903327,10
2755,42.64249019,17.48651414,10
2756,41.21025923,15.04041152,10
2757,45.57890483,17.48779306,10
2758,30.88235294,2.547133541,10
2759,16.17027781,17.4744339,10
2760,83.82352941,17.45286646,10
2761,66.17647059,17.45286646,10
2762,74.95098882,12.8159993,10
2763,69.06864383,12.80640132,10
2764,63.18629914,12.79680294,10
2765,48.48600894,12.70372507,10
2766,33.77988135,12.68383557,10
2767,36.75496981,2.551687302,10
2768,13.20226885,12.70169635,10
2769,19.07609927,12.68064035,10
2770,35.26095341,5.110269814,10
2771,32.31997027,5.107584491,10
2772,27.93684737,2.543753281,10
2773,14.6820498,5.092843718,10
2774,26.43517431,5.105047283,10
2775,23.50537945,5.094588789,10
2776,19.10537541,2.546964521,10
2777,73.49481968,5.126176728,10
2778,17.62218992,5.09230151,10
2779,54.40317263,2.542765545,10
2780,44.09949338,5.088813507,10
2781,86.74905949,2.56685389,10
2782,5.807678103,5.037230209,10
2783,2.680050486,4.70098275,10
2784,5.857219519,15.16476952,10
2785,8.81107846,15.10417286,10
2786,4.459041837,17.68941583,10
2787,23.52142627,15.04099669,10
2788,11.74399798,15.08848848,10
2789,38.22755869,15.0499261,10
2790,95.53606099,17.6300473,10
2791,52.93472776,15.05904698,10
2792,14.68052479,15.08588181,10
2793,17.61915303,15.08249659,10
2794,20.57381309,15.06870749,10
2795,27.9191281,12.61117404,10
2796,24.98673541,12.60181698,10
2797,29.35976805,15.08120578,10
2798,32.32014344,15.084862,10
2799,42.62607028,12.62685157,10
2800,35.27941696,15.07211093,10
2801,39.69305364,12.61746638,10
2802,44.06525265,15.09319318,10
2803,57.33268124,12.64283802,10
2804,47.02601292,15.09631683,10
2805,49.98603632,15.08243078,10
2806,54.40015115,12.6328005,10
2807,58.78138704,15.09971786,10
2808,61.72008253,15.1093092,10
2809,64.65837414,15.11258775,10
2810,91.1776429,15.1678258,10
2811,67.59942517,15.11501225,10
2812,88.20725725,15.15943162,10
2813,70.54059578,15.11739954,10
2814,85.2545656,15.13149619,10
2815,73.48177167,15.11978521,10
2816,76.4229469,15.12217078,10
2817,79.3641437,15.12453449,10
2818,82.30885376,15.1281086,10
2819,1.927294282,12.79239694,10
2820,97.98181084,7.417898579,10
2821,1.945414142,7.196071614,10
2822,98.10436118,12.79779613,10
2823,2.166747398,2.145205861,10
2824,97.8332526,2.145205861,10
2825,97.89982483,17.92332438,10
2826,2.100175166,17.92332438,10
2827,1.083373699,1.07260293,10
2828,1.083373699,2.501174359,10
2829,2.553961934,1.07260293,10
2830,1.050087583,17.53309076,10
2831,1.050087583,18.96166219,10
2832,2.520675818,18.96166219,10
2833,98.9166263,2.501174359,10
2834,98.9166263,1.07260293,10
2835,97.44603807,1.07260293,10
2836,98.94991242,18.96166219,10
2837,98.94991242,17.53309076,10
2838,97.47932418,18.96166219,10
2839,1.340025243,3.779062804,10
2840,1.340025243,5.207634232,10
2841,2.423398942,3.423094306,10
2842,0.972707071,6.455178664,10
2843,0.972707071,7.883750093,10
2844,2.312732314,5.948527182,10
2845,1.300896609,9.308931349,10
2846,1.300896609,10.73750278,10
2847,2.27360368,8.621252871,10
2848,0.9636471412,12.11048419,10
2849,0.9636471412,13.53905561,10
2850,2.26454375,11.41941554,10
2851,1.298185929,14.90777494,10
2852,1.298185929,16.33634637,10
2853,2.26183307,14.16111627,10
2854,2.348273512,16.72657998,10
2855,98.62110851,5.262304411,10
2856,98.62110851,3.833732983,10
2857,97.53773481,3.477764485,10
2858,98.99090542,7.994663575,10
2859,98.99090542,6.566092147,10
2860,97.61201393,6.114110844,10
2861,98.68935399,10.78795254,10
2862,98.68935399,9.359381116,10
2863,97.68025941,8.78261612,10
2864,99.05218059,13.54175521,10
2865,99.05218059,12.11318378,10
2866,97.74153458,11.4725649,10
2867,98.72038395,16.25692053,10
2868,98.72038395,14.8283491,10
2869,97.77256454,14.08439003,10
2870,97.67029637,16.64715415,10
2871,5.184080143,1.230689533,10
2872,3.713491908,1.230689533,10
2873,3.326277372,2.303292463,10
2874,8.084220261,1.267173403,10
2875,6.613632026,1.267173403,10
2876,5.915359228,2.497862936,10
2877,11.02769281,1.272220115,10
2878,9.557104571,1.272220115,10
2879,8.81779542,2.539393517,10
2880,13.96551367,1.273584817,10
2881,12.49492543,1.273584817,10
2882,11.75791236,2.545804932,10
2883,16.90633414,1.273193023,10
2884,15.4357459,1.273193023,10
2885,14.69537721,2.54677784,10
2886,19.84680535,1.27348226,10
2887,18.37621712,1.27348226,10
2888,17.63549243,2.546675284,10
2889,22.78932314,1.273086074,10
2890,21.31873491,1.273086074,10
2891,20.57730497,2.546568335,10
2892,25.73529412,1.27356677,10
2893,24.26470588,1.27356677,10
2894,23.52461726,2.546652844,10
2895,28.67430604,1.27187664,10
2896,27.2037178,1.27187664,10
2897,26.46842369,2.545443411,10
2898,31.61764706,1.27356677,10
2899,30.14705882,1.27356677,10
2900,29.40960016,2.545443411,10
2901,34.55882353,1.27356677,10
2902,33.08823529,1.27356677,10
2903,32.35294118,2.547133541,10
2904,37.49513197,1.275843651,10
2905,36.02454373,1.275843651,10
2906,35.28924961,2.549410421,10
2907,40.43938323,1.274091176,10
2908,38.96879499,1.274091176,10
2909,38.22863284,2.549934828,10
2910,43.38084625,1.272696455,10
2911,41.91025802,1.272696455,10
2912,41.17317066,2.546787631,10
2913,46.31908683,1.274900971,10
2914,44.8484986,1.274900971,10
2915,44.11169779,2.547597426,10
2916,49.26470588,1.27356677,10
2917,47.79411765,1.27356677,10
2918,47.05438095,2.548467741,10
2919,52.20219329,1.274020711,10
2920,50.73160505,1.274020711,10
2921,49.99631094,2.547587481,10
2922,55.14276278,1.271382772,10
2923,53.67217455,1.271382772,10
2924,52.93319137,2.545403483,10
2925,58.08215852,1.274642927,10
2926,56.61157028,1.274642927,10
2927,55.87198013,2.5460257,10
2928,61.02360447,1.278709686,10
2929,59.55301623,1.278709686,10
2930,58.81164534,2.553352613,10
2931,63.96749639,1.276319131,10
2932,62.49690815,1.276319131,10
2933,61.75580674,2.555028817,10
2934,66.90568196,1.281016838,10
2935,65.43509372,1.281016838,10
2936,64.69670775,2.557335969,10
2937,69.84718898,1.281596275,10
2938,68.37660075,1.281596275,10
2939,67.63522388,2.562613113,10
2940,72.79411765,1.27356677,10
2941,71.32352941,1.27356677,10
2942,70.5824831,2.555163045,10
2943,75.72656291,1.283071517,10
2944,74.25597467,1.283071517,10
2945,73.52068056,2.556638287,10
2946,78.66659887,1.28701869,10
2947,77.19601063,1.28701869,10
2948,76.4519853,2.570090207,10
2949,81.61155484,1.294305099,10
2950,80.1409666,1.294305099,10
2951,79.39580076,2.581323788,10
2952,84.55081663,1.285465207,10
2953,83.0802284,1.285465207,10
2954,82.33884206,2.579770306,10
2955,87.49217681,1.283426945,10
2956,86.02158857,1.283426945,10
2957,85.27828756,2.568892152,10
2958,90.43758573,1.279066433,10
2959,88.96699749,1.279066433,10
2960,88.22388018,2.562493378,10
2961,93.35989463,1.289227865,10
2962,91.88930639,1.289227865,10
2963,91.15042153,2.568294298,10
2964,96.25127322,1.272104492,10
2965,94.78068498,1.272104492,10
2966,94.02293256,2.561332357,10
2967,96.63848776,2.344707422,10
2968,3.700109154,18.84470791,10
2969,5.170697389,18.84470791,10
2970,3.279608501,17.8063701,10
2971,6.629654004,18.75928275,10
2972,8.100242239,18.75928275,10
2973,5.917998451,17.60399066,10
2974,9.555801583,18.75083136,10
2975,11.02638982,18.75083136,10
2976,8.83251441,17.51011411,10
2977,12.49805676,18.73351235,10
2978,13.96864499,18.73351235,10
2979,11.75974069,17.48434371,10
2980,15.43808008,18.73721695,10
2981,16.90866831,18.73721695,10
2982,14.70084272,17.4707293,10
2983,18.38022581,18.73365614,10
2984,19.85081405,18.73365614,10
2985,17.6418353,17.47087309,10
2986,21.33266098,18.74951663,10
2987,22.80324922,18.74951663,10
2988,20.59523974,17.48317277,10
2989,24.27640141,18.7331874,10
2990,25.74698964,18.7331874,10
2991,23.55023886,17.48270403,10
2992,27.20349708,18.74218422,10
2993,28.67408531,18.74218422,10
2994,26.47989849,17.47537162,10
2995,30.14240591,18.74278948,10
2996,31.61299414,18.74278948,10
2997,29.40472652,17.48497369,10
2998,33.08823529,18.72643323,10
2999,34.55882353,18.72643323,10
3000,32.34828826,17.46922271,10
3001,36.03960037,18.74985507,10
3002,37.5101886,18.74985507,10
3003,35.30430625,17.4762883,10
3004,38.98307995,18.73364541,10
3005,40.45366819,18.73364541,10
3006,38.25797444,17.48350048,10
3007,41.90948039,18.74325707,10
3008,43.38006862,18.74325707,10
3009,41.18667799,17.47690248,10
3010,44.84827595,18.74389653,10
3011,46.31886418,18.74389653,10
3012,44.11069751,17.4871536,10
3013,47.79411765,18.72643323,10
3014,49.26470588,18.72643323,10
3015,47.0541583,17.47032976,10
3016,50.74638379,18.75137522,10
3017,52.21697203,18.75137522,10
3018,50.01108967,17.47780845,10
3019,53.68974462,18.734097,10
3020,55.16033286,18.734097,10
3021,52.96554018,17.48547221,10
3022,56.61549632,18.7443283,10
3023,58.08608456,18.7443283,10
3024,55.89347624,17.4784253,10
3025,59.55882353,18.72643323,10
3026,61.02941176,18.72643323,10
3027,58.82137868,17.47076153,10
3028,62.5,18.72643323,10
3029,63.97058824,18.72643323,10
3030,61.76470588,17.45286646,10
3031,65.44117647,18.72643323,10
3032,66.91176471,18.72643323,10
3033,64.70588235,17.45286646,10
3034,68.38235294,18.72643323,10
3035,69.85294118,18.72643323,10
3036,67.64705882,17.45286646,10
3037,71.32352941,18.72643323,10
3038,72.79411765,18.72643323,10
3039,70.58823529,17.45286646,10
3040,74.26470588,18.72643323,10
3041,75.73529412,18.72643323,10
3042,73.52941176,17.45286646,10
3043,77.20588235,18.72643323,10
3044,78.67647059,18.72643323,10
3045,76.47058824,17.45286646,10
3046,80.14705882,18.72643323,10
3047,81.61764706,18.72643323,10
3048,79.41176471,17.45286646,10
3049,83.08823529,18.72643323,10
3050,84.55882353,18.72643323,10
3051,82.35294118,17.45286646,10
3052,86.02744983,18.73599621,10
3053,87.49803807,18.73599621,10
3054,85.29215571,17.46242944,10
3055,88.9625073,18.77239562,10
3056,90.43309553,18.77239562,10
3057,88.22525125,17.50839183,10
3058,91.92605563,18.77630201,10
3059,93.39664386,18.77630201,10
3060,91.18268057,17.54869763,10
3061,94.82685403,18.81502365,10
3062,96.29744226,18.81502365,10
3063,94.10585083,17.59132566,10
3064,96.71794291,17.77668584,10
3065,95.74799479,10.20714348,10
3066,94.80801437,9.015313951,10
3067,96.43872756,8.955504131,10
3068,96.74027899,7.590786591,10
3069,96.54051899,11.45185552,10
3070,94.9098058,11.51166534,10
3071,96.90334559,12.77708676,10
3072,5.111007649,11.390666,10
3073,3.520049777,11.35893171,10
3074,4.19275109,10.07816842,10
3075,3.478249816,8.770999029,10
3076,5.069207688,8.802733317,10
3077,3.18280031,12.73191312,10
3078,3.150060278,7.345817773,10
3079,81.59820717,3.870807058,10
3080,80.8533465,5.157826492,10
3081,80.12530784,3.875629631,10
3082,78.6509401,3.868343222,10
3083,83.06688073,3.861967167,10
3084,59.53938864,3.838482538,10
3085,58.06853092,3.834415779,10
3086,57.32574606,5.108041871,10
3087,56.59800276,3.822911946,10
3088,55.12919527,3.819651791,10
3089,66.14921717,5.12605128,10
3090,65.42112415,3.842576999,10
3091,66.89239812,3.845507957,10
3092,68.36331691,3.846087394,10
3093,63.95352681,3.837879292,10
3094,49.25772404,16.26764862,10
3095,50.73940195,16.29259061,10
3096,46.30245888,16.29205495,10
3097,47.77771234,16.27459165,10
3098,48.50602462,15.08937381,10
3099,15.42382962,3.819614882,10
3100,13.95359739,3.820006676,10
3101,16.89389968,3.819343778,10
3102,16.15211986,5.092572614,10
3103,18.36378266,3.819633015,10
3104,25.76229405,16.24915124,10
3105,27.21880148,16.25814806,10
3106,24.27240866,16.25368575,10
3107,25.01131166,15.03646219,10
3108,22.79925647,16.27001498,10
3109,33.07174984,3.827359016,10
3110,31.6011616,3.827359016,10
3111,36.00796161,3.830978558,10
3112,34.54224141,3.828701677,10
3113,33.79046184,5.108927153,10
3114,72.7702976,16.28632584,10
3115,74.24088583,16.28632584,10
3116,75.71147345,16.28751862,10
3117,77.18206168,16.28751862,10
3118,74.95235928,15.120978,10
3119,87.48401963,16.31571202,10
3120,88.94848887,16.35211143,10
3121,84.53904751,16.29218133,10
3122,86.00767381,16.30174431,10
3123,86.73091143,15.1454639,10
3124,41.90413988,3.820693465,10
3125,40.43326509,3.822088187,10
3126,43.37176941,3.817103208,10
3127,42.63186385,5.092403764,10
3128,44.83942176,3.819307724,10
3129,61.00710009,16.28108783,10
3130,62.47768832,16.28108783,10
3131,63.94683413,16.28272711,10
3132,65.41742237,16.28272711,10
3133,63.18922834,15.11094848,10
3134,11.01603587,16.2950756,10
3135,12.48770281,16.27775659,10
3136,13.95596621,16.27645325,10
3137,15.4254013,16.28015786,10
3138,13.21226138,15.08718514,10
3139,37.50632089,16.27481812,10
3140,38.97921224,16.25860846,10
3141,40.47056251,16.25385117,10
3142,41.92637471,16.26346283,10
3143,39.71890896,15.04516881,10
3144,24.25268972,3.820861165,10
3145,22.77730699,3.820380469,10
3146,27.18601084,3.824400282,10
3147,25.71758715,3.826090412,10
3148,24.97027688,5.099818036,10
3149,91.8675797,3.879113361,10
3150,90.41585903,3.868951929,10
3151,89.66561482,5.150684926,10
3152,88.94845666,3.839865863,10
3153,87.47363597,3.844226375,10
3154,34.55147319,16.26248869,10
3155,36.03225003,16.28591053,10
3156,31.59659528,16.28522048,10
3157,33.07183643,16.26886423,10
3158,33.7997802,15.07848647,10
3159,52.21374767,16.2808987,10
3160,53.68652027,16.26362048,10
3161,55.17895885,16.25854122,10
3162,56.63412231,16.26877253,10
3163,54.42716634,15.05396772,10
3164,46.30297818,3.836129363,10
3165,47.778009,3.834795163,10
3166,49.25103687,3.829851745,10
3167,48.4996341,5.117513368,10
3168,50.71793604,3.830305686,10
3169,69.82912142,16.285133,10
3170,71.29970965,16.285133,10
3171,66.88794788,16.28393935,10
3172,68.35853612,16.28393935,10
3173,69.07001048,15.11620589,10
3174,77.17572382,3.855108212,10
3175,75.7062761,3.85116104,10
3176,74.96241715,5.131177887,10
3177,74.23867863,3.846159881,10
3178,72.7768216,3.836655134,10
3179,9.531574845,3.807231777,10
3180,8.058690535,3.802185065,10
3181,11.01740049,3.814284058,10
3182,10.2582956,5.077075605,10
3183,12.48463312,3.81564876,10
3184,78.65266008,16.28870048,10
3185,80.12324832,16.28870048,10
3186,81.59560335,16.29048753,10
3187,83.06619158,16.29048753,10
3188,80.83649873,15.12632155,10
3189,19.84360294,16.26800988,10
3190,21.32544988,16.28387038,10
3191,16.89471542,16.27846525,10
3192,18.36627291,16.27490443,10
3193,19.09648306,15.07560204,10
3194,94.89061404,16.40307051,10
3195,93.46040388,16.36434887,10
3196,91.92664178,16.36021491,10
3197,92.71140499,15.17195975,10
3198,90.43368169,16.35630852,10
3199,8.094016763,16.31136917,10
3200,9.549576108,16.30291779,10
3201,7.33414899,15.13447119,10
3202,6.617087293,16.3416675,10
3203,5.158130678,16.42709267,10
3204,96.34296996,3.677266046,10
3205,95.64275581,4.999472325,10
3206,94.74350875,3.866415262,10
3207,93.3227184,3.883538636,10
3208,6.576294607,3.785788507,10
3209,5.146742724,3.749304638,10
3210,4.243864295,4.86910648,10
3211,3.582928916,3.581180908,10
3212,95.84296749,15.27353882,10
3213,94.97374854,13.96623554,10
3214,96.57154895,14.06368065,10
3215,96.48841445,16.50051561,10
3216,5.147762928,13.9180994,10
3217,4.226795688,15.34730255,10
3218,3.517339097,14.10063244,10
3219,3.527706847,16.60962571,10
3220,7.290074032,5.053626767,10
3221,10.99806283,6.344980203,10
3222,9.512237189,6.337927922,10
3223,8.740744039,7.574342953,10
3224,8.00097681,6.306438355,10
3225,6.518580882,6.290041797,10
3226,12.47539234,6.353589511,10
3227,11.72933392,7.614441829,10
3228,13.21308552,5.088485802,10
3229,13.94435661,6.357947427,10
3230,12.47148281,8.889802504,10
3231,10.99415331,8.881193195,10
3232,10.26238136,10.14761028,10
3233,9.520232475,8.872249606,10
3234,8.008972097,8.840760038,10
3235,13.93970825,8.894550221,10
3236,13.20452764,10.16130159,10
3237,14.6759147,7.62661994,10
3238,15.40895953,8.898119024,10
3239,15.41360788,6.361516231,10
3240,13.93751097,11.43387283,10
3241,12.46928552,11.42912511,10
3242,11.00362072,11.42283306,10
3243,9.529699891,11.41388947,10
3244,11.73660405,12.6954043,10
3245,16.87733395,8.901642359,10
3246,16.1411275,10.16957264,10
3247,16.87289719,11.44302859,10
3248,15.40452277,11.43950526,10
3249,14.66928065,12.70732878,10
3250,8.808900404,12.68637367,10
3251,8.067661046,11.41115089,10
3252,6.56528526,11.39676889,10
3253,7.286084747,10.1242847,10
3254,6.506596311,8.826378045,10
3255,17.61387614,7.632117292,10
3256,18.34604412,8.903570907,10
3257,16.88367794,6.361245127,10
3258,18.35238811,6.363173675,10
3259,19.81512256,8.906577948,10
3260,19.07858036,10.17610302,10
3261,19.81187904,11.4298752,10
3262,18.3428006,11.42686816,10
3263,17.60619586,12.69680078,10
3264,20.5519829,7.636142289,10
3265,21.28451915,8.908674397,10
3266,19.82395964,6.36318207,10
3267,21.29335623,6.365278519,10
3268,19.09376145,5.092309905,10
3269,22.75422494,8.894779186,10
3270,22.01736459,10.16521485,10
3271,22.76139542,11.39654269,10
3272,21.29168964,11.4104379,10
3273,20.55590987,12.66120305,10
3274,23.49126743,7.638430731,10
3275,24.22411287,8.894971179,10
3276,22.76337947,6.366413763,10
3277,24.23326741,6.366605757,10
3278,22.03535621,5.093453544,10
3279,25.7085128,8.886170403,10
3280,24.9714703,10.14251886,10
3281,25.72130282,11.36776753,10
3282,24.2369029,11.37656831,10
3283,23.51122794,12.62179136,10
3284,26.43374214,7.637839998,10
3285,27.18109957,8.885387676,10
3286,25.69816484,6.371835004,10
3287,27.17075161,6.371052277,10
3288,28.65414651,8.902130705,10
3289,27.92891717,10.15046111,10
3290,28.66054611,11.38918909,10
3291,27.18749916,11.37244606,10
3292,26.45293176,12.60649551,10
3293,29.37754865,7.64092888,10
3294,30.12536625,8.906002313,10
3295,28.64111665,6.368906198,10
3296,30.1123364,6.372777806,10
3297,27.90553935,5.102901204,10
3298,31.58205927,8.919310767,10
3299,30.85865712,10.18051259,10
3300,31.57924402,11.45684044,10
3301,30.122551,11.44353199,10
3302,29.381133,12.66551694,10
3303,32.31596021,7.649722788,10
3304,33.04925108,8.924233066,10
3305,31.58436933,6.376192489,10
3306,33.05156114,6.381114789,10
3307,30.84793733,5.104169808,10
3308,34.51691361,8.928893257,10
3309,33.78301267,10.19848124,10
3310,34.51527827,11.4434885,10
3311,33.04761574,11.43882831,10
3312,32.31150962,12.70184771,10
3313,35.25377905,7.657148296,10
3314,35.98754064,8.931396466,10
3315,34.52205272,6.382457451,10
3316,35.99267975,6.38496066,10
3317,37.45764789,8.916408871,10
3318,36.72078245,10.18815383,10
3319,37.46559774,11.41731578,10
3320,35.99549049,11.43230337,10
3321,35.26009357,12.67265044,10
3322,38.19793967,7.656860436,10
3323,38.93118148,8.913617802,10
3324,37.47059733,6.381035974,10
3325,38.94413091,6.378244905,10
3326,36.73887099,5.106345128,10
3327,40.41735569,8.903523444,10
3328,39.67706392,10.16307188,10
3329,40.42814588,11.38522195,10
3330,38.94197167,11.39531631,10
3331,38.21667971,12.63946585,10
3332,41.1466711,7.650148466,10
3333,41.89255354,8.899602542,10
3334,40.41785379,6.375031694,10
3335,41.89305163,6.371110792,10
3336,39.69051145,5.099207231,10
3337,43.36646977,8.916661128,10
3338,42.63715436,10.17003611,10
3339,43.36857043,11.40697313,10
3340,41.89465421,11.38991455,10
3341,41.15956196,12.62215897,10
3342,44.0907363,7.652114635,10
3343,44.83533712,8.922548199,10
3344,43.36068116,6.367520535,10
3345,44.82954851,6.373407606,10
3346,46.29099814,8.936710584,10
3347,45.56673161,10.20125708,10
3348,46.28582616,11.47899929,10
3349,44.83016514,11.4648369,10
3350,44.08766498,12.68471534,10
3351,47.025883,7.664744185,10
3352,47.75727749,8.943453063,10
3353,46.29310494,6.390229246,10
3354,47.75938429,6.396971725,10
3355,45.56304981,5.105635146,10
3356,49.22465642,8.948537916,10
3357,48.48977156,10.22050431,10
3358,49.22157972,11.46465712,10
3359,47.75420079,11.45957227,10
3360,47.01763431,12.72315209,10
3361,49.96149484,7.675056766,10
3362,50.6939889,8.952108017,10
3363,49.23241216,6.392028307,10
3364,50.70174465,6.395598409,10
3365,52.16386104,8.936352461,10
3366,51.42702262,10.20983361,10
3367,52.17209186,11.43697848,10
3368,50.70221973,11.45273403,10
3369,49.96664896,12.69180199,10
3370,52.90109161,7.673963801,10
3371,53.63412533,8.931689394,10
3372,52.17324853,6.390185711,10
3373,53.64351283,6.385522645,10
3374,51.44416586,5.107157252,10
3375,55.12053259,8.920686665,10
3376,54.38330201,10.18307532,10
3377,55.13493021,11.40243655,10
3378,53.64852295,11.41343928,10
3379,52.92372006,12.6563397,10
3380,55.84452486,7.668289184,10
3381,56.59370153,8.919675115,10
3382,55.11328691,6.382919386,10
3383,56.58645586,6.381907835,10
3384,54.38544382,5.099141296,10
3385,58.06732405,8.938070695,10
3386,57.34333178,10.19046818,10
3387,58.07481776,11.42585089,10
3388,56.60119525,11.40745531,10
3389,55.86641619,12.63781926,10
3390,58.7892068,7.67757127,10
3391,59.53883704,8.948364331,10
3392,58.05698401,6.393411669,10
3393,59.528497,6.403705305,10
3394,60.9940893,8.963945108,10
3395,60.27220655,10.22444453,10
3396,60.99147632,11.50262821,10
3397,59.53622406,11.48704744,10
3398,58.79408754,12.70403457,10
3399,61.72891048,7.690236048,10
3400,62.46227999,8.96631625,10
3401,61.00066527,6.405455659,10
3402,62.46885596,6.407826801,10
3403,60.26844249,5.121296058,10
3404,63.92991122,8.970907927,10
3405,63.19509003,10.24461699,10
3406,63.9245102,11.5230058,10
3407,62.45687897,11.51841412,10
3408,61.72089649,12.78101703,10
3409,64.66679559,7.695367255,10
3410,65.39960564,8.973667993,10
3411,63.93752219,6.407863756,10
3412,65.40721661,6.410623821,10
3413,63.20927698,5.123083367,10
3414,66.8695507,8.976492965,10
3415,66.13266633,10.25203364,10
3416,66.8650414,11.52823046,10
3417,65.39509634,11.52540549,10
3418,64.65688528,12.79920263,10
3419,67.60681495,7.704198602,10
3420,68.33987564,8.982564247,10
3421,66.87849058,6.413554779,10
3422,68.34881551,6.419626061,10
3423,69.81026297,8.985970327,10
3424,69.07299873,10.25826469,10
3425,69.80601494,11.53403604,10
3426,68.33562761,11.53062996,10
3427,67.59805762,12.80400181,10
3428,70.54675468,7.708211716,10
3429,71.27987776,8.983912158,10
3430,69.81754103,6.425637863,10
3431,71.28715582,6.423579695,10
3432,69.08921666,5.13499404,10
3433,72.75031744,8.985412744,10
3434,72.01382574,10.26317136,10
3435,72.74704086,11.53793614,10
3436,71.27660118,11.53643555,10
3437,70.53923006,12.80880083,10
3438,73.48502346,7.703478049,10
3439,74.21897144,8.982737246,10
3440,72.75559457,6.416165138,10
3441,74.22424857,6.413489639,10
3442,72.02638093,5.133591285,10
3443,75.68921122,8.98414107,10
3444,74.9545052,10.26607577,10
3445,75.68786691,11.54173944,10
3446,74.21762712,11.54033562,10
3447,73.48040256,12.81359982,10
3448,76.42707538,7.713670257,10
3449,77.16260915,8.997008777,10
3450,75.69184604,6.418490798,10
3451,77.16524396,6.431358505,10
3452,78.63353688,9.000946783,10
3453,77.89567272,10.2714176,10
3454,78.62938089,11.54807692,10
3455,77.15845317,11.54413891,10
3456,76.42157508,12.81839877,10
3457,79.37093082,7.729111706,10
3458,80.10399439,9.003520525,10
3459,78.64046024,6.444593514,10
3460,80.11091775,6.447167256,10
3461,77.90523089,5.149414055,10
3462,81.57433754,9.005986316,10
3463,80.8369436,10.27782139,10
3464,81.57010221,11.55282156,10
3465,80.09975905,11.55035577,10
3466,79.36253951,12.82307709,10
3467,82.31140684,7.734584755,10
3468,83.04435605,9.008885623,10
3469,81.58381708,6.442344683,10
3470,83.05383559,6.44524399,10
3471,84.51428273,9.011204721,10
3472,83.77721343,10.28260628,10
3473,84.51040831,11.5563591,10
3474,83.04048164,11.55404,10
3475,82.30329709,12.82657438,10
3476,85.25028173,7.728885355,10
3477,85.98313911,9.002606014,10
3478,84.5209708,6.443972632,10
3479,85.98982718,6.435373925,10
3480,83.79338104,5.15173256,10
3481,87.45151419,9.001230957,10
3482,86.71551518,10.28355032,10
3483,87.45143204,11.55326918,10
3484,85.98305697,11.55464423,10
3485,85.24632517,12.82607795,10
3486,88.18594212,7.721748313,10
3487,88.91831819,9.002692621,10
3488,87.45867529,6.420942754,10
3489,88.92547929,6.422404419,10
3490,86.72936435,5.136030031,10
3491,90.38438088,9.007294872,10
3492,89.64995294,10.28677752,10
3493,90.38171904,11.55715044,10
3494,88.91565635,11.55254819,10
3495,88.18319814,12.8236421,10
3496,91.11576969,7.739542403,10
3497,91.84740444,9.023627297,10
3498,90.39288166,6.451490485,10
3499,91.85590523,6.467822909,10
3500,93.34803743,9.011414063,10
3501,92.61664862,10.27916653,10
3502,91.86979566,11.53878113,10
3503,91.13549906,12.80455181,10
3504,93.37042865,11.5265679,10
3505,92.5881559,5.184196266,10
3506,93.31104393,6.472248184,10
3507,94.77102087,6.476148072,10
3508,94.0387702,7.759774715,10
3509,9.541008855,13.89664255,10
3510,8.07897001,13.89390397,10
3511,12.47313342,13.89509242,10
3512,11.00746862,13.88880036,10
3513,10.27753822,15.09633067,10
3514,33.0500124,13.88434878,10
3515,31.58164067,13.90236092,10
3516,30.10145297,13.90053281,10
3517,28.63944808,13.84618991,10
3518,30.83995575,15.08303389,10
3519,47.75601093,13.90002095,10
3520,46.2876363,13.91944797,10
3521,44.80725617,13.91788615,10
3522,43.34566146,13.86002238,10
3523,45.54563279,15.09475501,10
3524,62.45319084,13.95305607,10
3525,60.98778818,13.93727016,10
3526,59.51844044,13.93247449,10
3527,58.05703414,13.87127794,10
3528,60.25073478,15.10451353,10
3529,15.40840862,13.89942151,10
3530,13.94139682,13.89378908,10
3531,18.34762615,13.88156847,10
3532,16.87772274,13.8977289,10
3533,16.14983891,15.0841892,10
3534,21.30476678,13.85523661,10
3535,19.82495618,13.87467392,10
3536,22.04761968,15.05485209,10
3537,22.77857337,13.84138122,10
3538,24.25408084,13.82140684,10
3539,36.00986137,13.86678812,10
3540,34.52964915,13.87797325,10
3541,36.75348782,15.06101851,10
3542,37.48393224,13.85569571,10
3543,38.96030616,13.83369624,10
3544,50.71666265,13.88115484,10
3545,49.23602263,13.89307793,10
3546,51.46038204,15.07073888,10
3547,52.19100837,13.86946294,10
3548,53.66743946,13.84592374,10
3549,68.3340345,13.96070678,10
3550,66.86344829,13.95830728,10
3551,65.39292278,13.95709503,10
3552,63.92233664,13.95469535,10
3553,66.12889966,15.1138,10
3554,91.90060929,13.97700415,10
3555,90.41253267,13.99537346,10
3556,88.92733985,13.99117636,10
3557,87.46311554,13.99189735,10
3558,89.69245008,15.16362871,10
3559,74.21638024,13.96789226,10
3560,72.74579398,13.96549278,10
3561,71.27520604,13.96429994,10
3562,69.8046198,13.96190043,10
3563,72.01118372,15.11859238,10
3564,80.09853068,13.97494522,10
3565,78.62815252,13.97266636,10
3566,77.15755412,13.97148451,10
3567,75.68696786,13.96908504,10
3568,77.8935453,15.12335264,10
3569,85.98676972,13.97792964,10
3570,84.51412106,13.97964451,10
3571,83.04126513,13.97795071,10
3572,81.57088571,13.97673227,10
3573,83.78170968,15.1298024,10
3574,5.892583948,12.67753218,10
3575,6.602040539,13.9242023,10
3576,94.16295284,12.77127994,10
3577,93.43437138,13.9811381,10
3578,86.00478787,3.858657546,10
3579,84.53401594,3.860695808,10
3580,69.83204242,3.852099196,10
3581,71.30838285,3.844069691,10
3582,61.01155691,3.840232892,10
3583,62.48486059,3.837842337,10
3584,53.65942118,3.82225505,10
3585,52.18943992,3.824892989,10
3586,38.95954222,3.825301398,10
3587,37.48587919,3.827053872,10
3588,30.12912867,3.823944333,10
3589,28.65637589,3.822254203,10
3590,21.30728375,3.819245224,10
3591,19.83535419,3.81964141,10
3592,5.792095038,7.519208658,10
3593,5.081192259,6.26639707,10
3594,3.51737845,6.098273341,10
3595,96.37048208,6.286998855,10
3596,58.06501337,16.29418723,10
3597,59.53775234,16.27629216,10
3598,57.35049598,15.07430316,10
3599,55.15987804,13.84084448,10
3600,56.62614308,13.84586324,10
3601,27.93048255,15.05656673,10
3602,28.64808699,16.28278711,10
3603,30.11640758,16.28339237,10
3604,25.74396623,13.81687233,10
3605,27.21016257,13.82155086,10
3606,42.63775594,15.06680235,10
3607,43.35387142,16.28985366,10
3608,44.82207874,16.29049312,10
3609,40.45165643,13.82893895,10
3610,41.91816475,13.83363154,10
3611,16.14315543,9.324419875,5
3612,61.73003019,11.93313784,5
3613,29.41163545,11.84489942,5
3614,44.1201397,11.86442879,5
3615,80.83551905,11.12727443,5
3616,67.59944516,11.95361616,5
3617,73.48178985,11.96335846,5
3618,35.2523352,8.505408944,5
3619,13.2116037,14.34627947,5
3620,23.4913781,6.791138061,5
3621,86.71630752,11.12965925,5
3622,55.86914386,11.84091235,5
3623,49.95942462,8.527087842,5
3624,42.63395599,5.947632772,5
3625,58.79519292,6.821832424,5
3626,19.09302076,14.33371871,5
3627,64.66842244,6.829094868,5
3628,74.95946703,5.996893501,5
3629,38.22789979,13.39244008,5
3630,91.12538965,6.877807134,5
3631,30.59979046,6.090568397,5
3632,83.79414074,6.028418621,5
3633,10.25436631,5.904927834,5
3634,48.50425702,14.71258148,5
3635,24.69269569,14.08489966,5
3636,8.032441641,13.92204963,5
3637,4.722458077,4.756617986,4.728920926
3638,69.83277035,6.64579271,5
3639,95.2797134,15.24317883,4.745426212
3640,77.55404853,15.02298246,4.965536056
3641,54.00890807,5.006416553,5
3642,33.39919058,15.01467684,5.022118388
3643,18.74977813,4.961343291,5.045768606
3644,95.3516359,4.680551643,5.428080295
3645,90.07743831,14.99527978,5
3646,83.7742659,15.19080538,5.200284682
3647,4.854071468,9.990213239,5.031717711
3648,95.12913067,9.990923604,4.962140537
3649,38.07439821,4.719357087,5.286878422
3650,47.18543268,4.713395287,4.704672503
3651,79.38174151,4.628925111,5.385701386
3652,58.74408211,15.41433598,5.406574984
3653,64.65254724,15.43735067,5.42848914
3654,70.53484888,15.44155243,4.567718627
3655,53.02430311,15.42492228,4.579635765
3656,10.92724633,10.40787605,4.501157589
3657,4.208623731,15.77611963,4.039914706
3658,20.52688315,10.1161442,5.51605002
3659,39.62445261,9.192740602,5.778188465
3660,14.38984692,4.391623641,4.38151973
3661,41.96832248,15.69138448,4.327748152
3662,87.71321901,4.265500319,4.249893204
3663,26.82519092,4.204606096,5.81584518
3664,28.45607139,15.92246485,5.898474191
3665,76.94368073,9.654527362,5.832961528
3666,34.11108864,3.942545492,4.042000061
3667,27.23830525,8.39631921,5.940666471
3668,61.73524656,4.044400515,5.980546237
3669,91.13619517,11.00558276,5.847184475
3670,46.01009913,8.394140595,6.012999984
3671,67.14798451,3.846460671,6.182378923
3672,51.988599,11.83482376,6.094846921
3673,74.02250843,16.27420591,6.250039744
3674,53.71448202,8.756964894,3.753880292
3675,24.61156234,10.35245052,3.763282336
3676,50.58626786,3.638826523,6.315780228
3677,33.02990464,11.39580063,3.63382186
3678,72.05882353,3.519641847,4.21440401
3679,45.23366008,16.32146827,6.319418645
3680,87.53685062,7.568556115,6.233692938
3681,47.63960232,11.24525278,3.632849165
3682,16.15661095,16.35281782,3.64410544
3683,57.35294118,3.404044989,5.78559599
3684,79.41199041,7.934286844,3.513737781
3685,21.98844519,16.36049468,6.3812824
3686,21.97793544,3.619438613,3.619320163
3687,90.99659374,3.438451147,6.561372819
3688,64.64320072,3.414306344,3.391929353
3689,83.77660068,9.433389614,6.635691196
3690,61.72753417,8.542430761,6.63849265
3691,61.70109798,16.59756509,3.436534328
3692,8.142946815,8.714392947,6.485573337
3693,35.21849482,11.87539427,6.636523976
3694,10.43570059,16.40885666,3.574384404
3695,36.54825123,16.41013535,3.568444151
3696,86.91846087,16.40937459,3.582478331
3697,72.6844938,8.599681089,6.429477516
3698,31.73528114,9.324855368,6.434163008
3699,70.54374735,10.06870393,3.718457318
3700,80.6856259,16.43648113,3.563518874
3701,55.98032009,8.543264902,6.666908332
3702,12.9901065,7.974002546,6.340471926
3703,38.50928322,16.64725415,6.649173281
3704,64.67072171,10.22825473,3.655379001
3705,67.32594698,8.714778975,6.688352092
3706,67.83884077,16.67940374,6.679403741
3707,7.78106053,3.545923069,6.453136789
3708,92.49915638,3.988749135,3.323435756
3709,16.14879757,12.694302,3.635563282
3710,58.82609728,10.20231074,3.642846221
3711,42.32047506,9.171421248,3.318843243
3712,86.95218378,14.31754573,6.706572347
3713,80.62456805,14.29478052,6.712502303
3714,85.29411765,3.227955462,6.733962206
3715,76.47058824,3.225281758,3.24362491
3716,55.64051047,16.70315002,6.695039077
3717,40.77793565,3.340548008,3.34568582
3718,44.48477057,3.332309543,6.654499236
3719,82.35294118,3.224320763,3.239731523
3720,29.41176471,3.210413053,3.210413053
3721,23.52941176,3.191336853,6.808663147
3722,76.5765215,12.06444498,3.228460396
3723,76.44321921,3.196213035,6.808967915
3724,41.31466372,13.17077862,6.743839846
3725,6.449474847,16.64208545,6.672405808
3726,26.24390408,16.7541509,3.253423472
3727,74.57061737,9.066805555,3.256286484
3728,13.87314819,11.36587301,6.775848113
3729,67.5447442,16.68370394,3.161746437
3730,3.007146259,16.91472237,6.839027059
3731,55.95434153,16.81628135,3.176880709
3732,20.50457355,7.427569096,3.22613656
3733,83.77624162,10.31881604,3.214214134
3734,11.75729523,3.209299333,6.80677903
3735,45.44585178,14.62205901,3.223401557
3736,89.29308341,9.38973295,3.264035477
3737,70.53939458,12.70797509,6.796065158
3738,61.72895839,7.660567251,3.215398617
3739,31.89734577,3.292620264,6.707379736
3740,64.66473361,11.94454104,6.926154166
3741,97.04138744,3.073715662,3.206428727
3742,44.28834829,3.45843933,3.144079018
3743,50.92698944,5.550785122,3.369178611
3744,40.96301958,3.472566479,6.852592866
3745,16.14899748,14.35376681,6.906406616
3746,58.79988627,11.86800825,6.916306654
3747,21.82563001,12.6963377,3.510105377
3748,41.16002485,12.47749816,3.181818558
3749,3.514974895,13.1006632,6.466069885
3750,30.47037841,9.063678089,3.169973609
3751,26.44423228,11.68418513,6.857277284
3752,20.58643444,16.87779663,3.11852365
3753,61.76470588,16.74206195,6.919604965
3754,96.98429061,16.96686379,6.929249905
3755,8.815764015,3.13225958,3.127455419
3756,59.63939812,3.896495673,3.174850506
3757,30.60940612,15.97310594,3.142705244
3758,16.04156241,6.321876716,6.76968275
3759,7.209550418,6.992709346,3.515111664
3760,11.58716285,16.82232813,6.837950294
3761,2.987585919,3.065486311,6.871387861
3762,96.77527088,6.391222933,2.939104179
3763,46.99992488,12.22989836,6.894054037
3764,93.2468589,12.61694037,3.490895177
3765,27.64881718,6.319524496,3.195845931
3766,38.19753826,7.444939257,3.137846444
3767,36.72860986,10.95593116,3.043346275
3768,67.56687673,8.419577272,3.071408938
3769,50.68532253,16.72390879,6.745607749
3770,68.80075239,3.919935873,3.156134089
3771,7.707183212,10.92003819,3.233816361
3772,80.94721246,7.465138716,6.564557763
3773,42.84720611,9.337283229,6.931270834
3774,33.93066964,6.038975598,6.980205605
3775,74.63765731,14.8720266,3.200784109
3776,93.92744924,7.428310818,6.877157889
3777,92.69341284,16.62092301,6.638230672
3778,20.6960451,7.023962311,6.926575304
3779,52.69841488,7.588282349,6.823151696
3780,94.12159077,12.73080441,6.858289147
3781,50.32613886,16.86142207,3.116444465
3782,23.0787346,11.82225118,6.903503406
3783,97.17346043,2.83954872,7.080728645
3784,35.29411765,2.97460981,7.019027504
3785,3.37409282,7.305410122,6.670421479
3786,17.82270598,11.46654841,6.930887045
3787,92.53032638,16.55928177,3.245495682
3788,2.870179895,2.922349533,2.966786633
3789,96.69759871,12.50854773,3.261635012
3790,51.4088473,11.02370036,2.903829048
3791,16.55932343,6.593111674,3.138618504
3792,35.21025336,16.99963722,6.999637222
3793,76.12497939,12.70662179,6.885132598
3794,97.15360596,17.04195554,3.008461378
3795,56.15979846,6.624630262,2.955635748
3796,81.95702089,3.113206567,6.8830833
3797,10.72216125,12.91163406,6.699758606
3798,13.45357263,8.727472078,3.130949252
3799,32.00718855,12.6596077,6.895799879
3800,25.18965313,4.103880335,2.927326531
3801,82.29707617,13.27121144,2.939006785
3802,86.01397004,7.833481202,3.267581801
3803,27.37357046,13.64199336,3.102303393
3804,47.0264628,7.538655706,2.973149773
3805,70.34656884,3.562322899,7.072916921
3806,25.38686343,16.78336315,6.783504303
3807,3.307772835,7.508633639,3.256464396
3808,17.97472351,17.06598557,6.470809352
3809,55.87021189,3.342676254,2.8418258
3810,97.08437496,7.38267232,6.036828902
3811,92.59729867,9.411835878,2.884421038
3812,58.76597639,13.37534378,2.848210005
3813,85.57224541,13.47216745,3.006158622
3814,64.6558973,13.40465919,2.861858196
3815,18.89731331,11.10254813,2.858291608
3816,7.205001924,16.79108366,3.189491521
3817,33.12775708,6.909395091,3.107615231
3818,31.42801747,16.84594956,6.855964733
3819,48.81178056,6.274697316,7.066282633
3820,72.42302465,6.533916476,3.018242544
3821,3.2723821,12.34265059,3.168541333
3822,16.50214815,3.100121168,6.509803145
3823,17.63543048,2.861474061,2.85896463
3824,20.31847722,2.966597542,7.03924525
3825,79.27045721,17.20645306,6.582551165
3826,77.43361905,6.666282725,6.977258395
3827,14.77041779,17.25005479,6.674270714
3828,88.23529412,17.25836663,6.667270469
3829,88.92442766,12.60376424,3.147802891
3830,54.34121523,13.79688164,7.019817656
3831,10.88028049,13.27765226,3.085935594
3832,52.70062188,2.927516629,2.924078398
3833,6.850007075,11.64312178,6.973786869
3834,11.98547359,2.907537162,2.911614072
3835,24.36403614,8.935050954,7.167938301
3836,83.26732588,12.55244169,6.882835012
3837,82.3726028,17.20061923,7.200619226
3838,47.19509539,17.25941234,3.420754113
3839,97.03802053,13.8395358,7.233531052
3840,37.40370602,7.301194197,6.951141047
3841,35.0784513,13.61217155,2.771420188
3842,27.62532704,10.3522484,2.900352005
3843,41.57006076,17.09314695,7.091706282
3844,73.44276326,4.119993131,7.019196998
3845,76.72819572,17.15025834,2.849741657
3846,40.4889684,6.543473716,7.19457228
3847,79.21438385,13.63700864,2.728710823
3848,49.39401731,2.833285065,3.541921575
3849,70.87534543,17.14408487,7.144084874
3850,55.03710756,13.86660534,2.786772865
3851,2.47782746,17.49149203,2.751114803
3852,85.39912506,2.783394433,2.793487624
3853,64.36310655,2.869914169,7.132139711
3854,70.53894696,12.98230304,2.705863372
3855,6.296032099,6.24359097,6.981660331
3856,82.38452639,7.602741682,2.749602353
3857,39.51141418,16.97869191,3.019592872
3858,36.86118863,3.02955459,3.030025592
3859,44.10406981,17.31953434,2.683961658
3860,78.99191097,11.75807125,7.354204253
3861,94.16807886,2.591853659,7.261940259
3862,47.47867768,2.863181428,7.134657972
3863,64.58663062,17.27405333,2.725946675
3864,93.85585954,6.671959571,3.701722768
3865,72.79702226,17.25670238,3.64195074
3866,53.43642885,2.878259537,7.119036501
3867,13.30069355,17.34224506,4.00963988
3868,79.41176471,2.665386046,2.67397948
3869,61.09025871,13.81331413,7.285094
3870,48.49178336,9.63994334,7.409786363
3871,66.99869477,13.83678121,7.292341386
3872,88.57689375,11.74768379,7.345843156
3873,76.78139114,6.649258705,2.633211228
3874,50.33937517,13.85419222,2.747107248
3875,58.88081637,17.33738525,2.662614755
3876,18.08107236,8.482816416,7.284977338
3877,25.0554129,6.012564766,7.460056775
3878,85.35285019,16.77550712,7.422329284
3879,57.27537996,5.924867127,7.458861114
3880,44.14322299,6.763457249,2.513711251
3881,20.57241208,13.41409099,7.470344391
3882,49.84906055,13.5064922,7.423919685
3883,89.20199469,6.408576539,2.69881876
3884,6.083731627,13.4590551,2.681506121
3885,38.65808146,11.56978327,7.366167318
3886,36.66335128,14.39757399,7.414624445
3887,13.42950085,11.71379626,2.825656434
3888,88.19163649,2.656524426,7.351518316
3889,5.866785713,2.629997766,2.68495975
3890,44.3873744,13.65280329,7.390878774
3891,23.40013086,15.82303233,2.90655367
3892,28.63870828,6.100653175,7.26973092
3893,12.33554889,5.948068572,2.823700189
3894,58.85811818,8.558519489,7.499900156
3895,29.20759002,13.50335799,7.466400694
3896,61.7090985,13.73486719,2.635745528
3897,66.14778399,5.845475402,2.50555185
3898,41.00574399,6.592881756,2.580162849
3899,67.67268571,13.76119945,2.643454532
3900,83.51070032,17.07497947,2.925020533
3901,73.27857513,13.6553054,7.42820093
3902,29.0141973,2.768518089,7.23360533
3903,45.16297041,9.847314162,2.761412058
3904,44.07575099,6.688160539,7.493132044
3905,33.34633192,17.09379912,2.906200882
3906,91.2710836,13.59841945,7.40957596
3907,70.05633391,9.79720751,7.11008978
3908,91.10712059,8.514310951,7.506256731
3909,63.30590319,6.043850234,7.525716954
3910,39.56237444,10.03436077,2.631378692
3911,76.45799502,17.43724455,7.437244546
3912,38.19871915,2.58646132,7.418972367
3913,89.65226664,5.915772841,7.523114141
3914,55.92501468,9.357668749,8.333454166
3915,53.98445955,10.18904433,6.380877626
3916,53.92915413,11.00344818,8.04742346
3917,55.10546225,11.98447712,8.509908828
3918,53.16490711,12.8158527,6.557332288
3919,55.16076766,11.17007327,6.843362994
3920,52.44274688,11.0144509,8.04742346
3921,53.61905499,11.99547985,8.509908828
3922,20.52611617,8.803339576,1.61306828
3923,22.55806794,8.890009809,3.494709448
3924,22.57961057,10.26578029,1.881641168
3925,21.18664441,11.43772388,1.755052689
3926,23.21859617,11.52439411,3.636693857
3927,21.16510178,10.0619534,3.368120969
3928,54.43860742,9.368671478,8.333454166
3929,10.59080632,8.15640194,4.750578795
3930,10.58962537,9.006854284,2.250578795
3931,10.25318536,6.755380177,2.5
3932,8.731958364,6.44881859,4.257555832
3933,8.730777418,7.299270933,1.757555832
3934,9.068398373,8.700292696,4.008134627
3935,97.56456533,10.69744386,4.97644155
3936,97.56456533,9.995482165,6.231974854
3937,98.51901027,12.62174996,6.112136807
3938,98.51901027,11.91978826,7.367670111
3939,96.0835756,11.9152297,6.097835794
3940,57.35079044,18.7443283,8.72643323
3941,58.82137868,18.7443283,8.72643323
3942,58.04636091,16.45149629,7.703287492
3943,59.51909988,17.70716799,6.429720722
3944,58.04851164,17.70716799,6.429720722
3945,60.29411765,18.72643323,8.72643323
3946,59.51909988,16.43360122,7.703287492
3947,96.25391933,10.06912863,7.481070268
3948,98.68935399,10.07368719,8.750904586
3949,97.20836426,11.99343473,8.616765526
3950,24.04931636,10.25188508,1.881641168
3951,21.99582196,8.789444365,1.61306828
3952,60.99798317,5.866132711,7.990273118
3953,60.26576039,4.58197311,7.990273118
3954,58.8271962,6.839032596,8.749950078
3955,60.29668237,6.301460002,6.740223196
3956,59.55941898,8.123192198,8.749950078
3957,63.19512772,9.395819713,8.319246325
3958,64.52674058,8.628604868,6.663422371
3959,65.99433412,9.48199382,8.344176046
3960,63.98431222,8.146529449,8.762858477
3961,65.31592508,7.379314605,7.107034523
3962,62.51671868,7.293140498,7.082104802
3963,61.73792866,4.583723464,7.990273118
3964,64.70588235,18.72643323,8.72643323
3965,63.23529412,18.72643323,8.72643323
3966,63.94392068,17.71867534,6.4406778
3967,63.94392068,16.44510857,7.71424457
3968,65.41450892,17.71867534,6.4406778
3969,66.17647059,18.72643323,8.72643323
3970,65.41450892,16.44510857,7.71424457
3971,11.29377665,6.776950547,1.411850095
3972,11.2949576,5.926498203,3.911850095
3973,11.63139761,8.17797231,3.662428889
3974,59.50531326,4.984633821,6.719703675
3975,58.03582709,5.522206416,8.729430557
3976,58.06674907,7.241693308,7.479380635
3977,64.66372744,11.09687485,8.463077083
3978,63.19613389,10.2434859,6.782323408
3979,65.9953403,10.32966001,6.807253129
3980,88.70955068,2.13275016,3.398513372
3981,89.35490637,3.851975733,5.405633011
3982,90.35123804,1.719225573,4.55425318
3983,91.10251936,1.994374568,2.935284648
3984,91.74787506,3.713600141,4.942404288
3985,90.10618769,4.127124727,3.78666448
3986,49.60696173,18.36195439,7.108927575
3987,47.9594913,16.52268853,6.532513197
3988,46.8811305,18.16073413,6.895833023
3989,47.86184815,18.62970617,5.446500757
3990,46.21437773,16.7904403,4.870086379
3991,48.94020896,16.99166056,5.083180931
3992,61.78331149,6.86585757,8.762858477
3993,61.08201068,7.301184861,7.512808555
3994,62.52057487,5.044125375,6.753131595
3995,46.86895855,15.51702487,5.659709322
3996,46.1298365,15.70889255,8.159709322
3997,47.76513497,14.90444916,7.5
3998,49.59478977,15.71824514,5.872803875
3999,48.85566773,15.91011281,8.372803875
4000,84.5273285,5.589439911,7.5
4001,83.78778305,6.882951341,7.5
4002,85.65913798,7.653020089,8.116846469
4003,85.66549568,6.798487368,5.616846469
4004,86.39868344,6.359508658,8.116846469
4005,22.6563502,11.42382867,1.755052689
4006,46.88153592,16.88716736,8.159709322
4007,49.60736715,17.08838762,8.372803875
4008,55.92473198,10.19208862,5.833454166
4009,53.92887143,11.83786805,5.54742346
4010,55.10517955,12.81889699,6.009908828
4011,91.08313701,1.719225573,5.781831635
4012,91.83441833,1.994374568,4.162863103
4013,57.33184351,15.23161222,7.703287492
4014,58.77198419,13.64117212,6.161440819
4015,57.35974559,13.45844835,8.458153327
4016,55.13041008,14.42288505,8.509908828
4017,56.57055075,12.83244495,6.968062155
4018,56.54264867,14.60560881,6.21319632
4019,62.52325697,5.583448323,8.762858477
4020,48.52900634,18.72643323,8.736123701
4021,54.37068319,13.21484107,8.509908828
4022,89.69780141,18.77239562,1.27356677
4023,88.31217161,18.20468729,3.064805936
4024,88.30409067,16.97708291,1.791239165
4025,91.11002343,17.05203651,1.622747841
4026,89.72439363,16.48432818,3.413987006
4027,91.11810437,18.27964089,2.896314611
4028,30.12738667,12.28237963,2.5
4029,31.22077005,11.62035002,4.31691093
4030,31.93652127,12.05783024,1.81691093
4031,30.726272,14.34648289,1.571352622
4032,31.81965538,13.68445329,3.388263552
4033,30.01052078,13.90900268,4.071352622
4034,89.70229161,1.279066433,1.27356677
4035,88.70595994,3.411816593,2.124946602
4036,91.09892862,3.273441001,1.661717878
4037,8.979593815,9.262935357,1.616908181
4038,9.31721477,10.66395712,3.867486975
4039,7.458366815,8.95637377,3.374464013
4040,98.68935399,10.07368428,1.242215483
4041,97.56456533,9.995479256,3.723285752
4042,96.25391933,10.06912863,2.481070268
4043,97.07698943,8.269278297,1.46955209
4044,95.95220078,8.191073269,3.950622358
4045,98.38763544,8.19562892,2.711767573
4046,60.29282618,8.550475125,7.069196403
4047,61.73139037,6.293415638,6.309519443
4048,58.06628375,12.25542314,8.458153327
4049,55.83694823,13.21985983,8.509908828
4050,9.939624506,9.435473409,8.242786669
4051,9.535096572,9.561134497,5.493365463
4052,11.33177426,10.28221496,7.250578795
4053,12.36320435,9.065278208,8.170235963
4054,11.95867641,9.190939296,5.420814758
4055,10.56652666,8.344197747,6.413022631
4056,36.15431345,5.693742374,3.589923253
4057,36.72924584,6.277604535,1.568923222
4058,34.68602102,4.526407653,2.021000031
4059,33.61942286,5.425970292,3.574807646
4060,34.19435525,6.009832453,1.553807615
4061,35.66264767,7.177167174,3.122730837
4062,83.77901302,8.585436838,8.317845598
4063,83.78537071,7.730904117,5.817845598
4064,85.65672565,8.500972864,6.434692067
4065,97.56456533,9.284258634,4.962013289
4066,98.38763544,7.484408298,3.950495111
4067,54.42503874,18.734097,1.27356677
4068,53.73130795,16.44655814,2.289817883
4069,53.71803391,17.71246114,3.563384653
4070,52.36895178,18.43071103,2.831789003
4071,51.67522098,16.14317218,3.848040115
4072,52.38222582,17.16480803,1.558222232
4073,11.22923172,11.53409396,8.349879303
4074,9.432554032,10.8130135,6.592665972
4075,10.82470379,11.65975505,5.600458098
4076,61.02941176,17.09746421,8.459802483
4077,61.02941176,18.37103098,7.186235712
4078,60.254394,16.07819897,6.163089975
4079,66.7312185,8.206453148,8.344176046
4080,67.23696575,6.280619823,6.435365507
4081,66.64223726,5.772293995,8.091189461
4082,64.7211966,6.870988777,8.762858477
4083,65.22694385,4.945155452,6.854047938
4084,22.7563788,7.2146884,2.5
4085,24.22626674,7.214880393,2.5
4086,23.31647092,8.99534463,1.881641168
4087,24.78635885,8.995536624,1.881641168
4088,24.05147022,8.571794292,4.381641168
4089,46.14314067,18.16073413,5.664333542
4090,47.12385832,18.62970617,4.215001276
4091,88.49794959,15.70232718,4.291239165
4092,89.89166033,17.49763989,3.77356677
4093,91.30388235,15.77728078,4.122747841
4094,58.03528644,6.373349775,6.229430557
4095,60.26521974,5.433116469,5.490273118
4096,58.82665555,7.690175956,6.249950078
4097,70.19535626,5.893399276,7.5
4098,71.25863208,7.6227369,5.714738758
4099,71.62121799,6.870343465,8.214738758
4100,70.4522555,4.351664371,8.536458461
4101,71.51553132,6.081001994,6.751197219
4102,70.08966959,5.104057805,6.036458461
4103,60.99412698,8.115147834,8.319246325
4104,8.421760051,14.51311124,7.5
4105,7.240958244,15.28206754,5.836202904
4106,7.630276654,15.87312915,8.336202904
4107,10.19912066,15.96325049,8.418975147
4108,9.018318851,16.73220679,6.755178051
4109,9.809802248,15.37218888,5.918975147
4110,72.00035272,4.630499486,8.509598499
4111,73.06362853,6.35983711,6.724337257
4112,71.89466605,3.841158015,7.046056959
4113,36.06107102,4.069912202,1.515012796
4114,35.48613863,3.486050041,3.536012827
4115,37.52936344,5.237246923,3.083936018
4116,80.88246579,5.579303803,3.376734652
4117,80.86734134,3.926622937,4.312716454
4118,79.39686596,6.281605978,4.449719583
4119,79.41187756,5.299836445,3.093858631
4120,79.39675311,3.647155578,4.029840433
4121,80.88235294,2.944853404,2.956855501
4122,62.46231767,8.117518975,8.319246325
4123,63.25150218,6.868228712,8.762858477
4124,55.86942656,11.00649247,7.5
4125,26.30498627,6.979073611,1.597922965
4126,25.57009764,6.555331279,4.097922965
4127,26.13018976,8.335987509,3.479564133
4128,77.93130475,1.28701869,8.72643323
4129,77.19219784,1.598106518,7.130917187
4130,77.18232612,2.885125207,8.404483958
4131,79.93922696,2.843621973,8.44154165
4132,79.20012005,3.154709801,6.846025608
4133,79.94909868,1.556603284,7.16797488
4134,80.10105975,10.70131502,2.5
4135,79.38929543,9.104821223,1.756868891
4136,80.12375473,9.530780639,4.256868891
4137,78.70602027,11.59585971,4.114230198
4138,77.99425595,9.999365913,3.371099089
4139,77.97156097,11.16990029,1.614230198
4140,68.49037743,5.24612669,5.591189461
4141,67.38423783,4.487721454,8.091189461
4142,68.72663075,5.887387474,7.5
4143,68.57935867,7.680285843,5.844176046
4144,67.47321906,6.921880606,8.344176046
4145,77.91248036,3.912569073,6.097334651
4146,78.66145899,2.314462556,6.419283923
4147,80.6693812,3.871065839,6.134392343
4148,69.45495512,7.178031297,7.5
4149,68.20154343,8.21252443,8.344176046
4150,89.88357939,16.27003551,2.5
4151,47.8496762,15.98599691,4.210377056
4152,21.26297652,7.532903917,1.61306828
4153,21.99797582,7.109353579,4.11306828
4154,62.5,17.09746421,8.459802483
4155,63.20862656,16.08970631,6.174047053
4156,62.5,18.37103098,7.186235712
4157,79.29049215,11.95618212,1.364355412
4158,80.02495145,12.38214154,3.864355412
4159,77.89545267,12.85072681,2.97858561
4160,78.65158727,3.601481245,7.692850693
4161,68.98352999,4.345652569,8.536458461
4162,69.71185436,5.636296392,8.536458461
4163,65.99718471,7.771936922,5.844176046
4164,63.19797831,7.685762815,5.819246325
4165,63.98716281,6.436472551,6.262858477
4166,55.7800577,15.87601924,8.347519538
4167,57.19229629,16.058743,6.050807031
4168,54.99086285,15.25001583,6.857428366
4169,30.88235294,1.27356677,1.27356677
4170,32.49672079,1.971272746,3.294566801
4171,32.49672079,3.244839516,2.021000031
4172,30.14705882,2.878773297,1.605206526
4173,31.76142667,3.576479272,3.626206557
4174,30.14705882,1.605206526,2.878773297
4175,54.79181294,10.29893862,4.376940146
4176,54.79209564,9.464518745,1.876940146
4177,55.86942656,11.00649247,2.5
4178,57.34762057,11.02161155,4.321423111
4179,57.34790327,10.18719167,1.821423111
4180,56.27028965,9.479637818,3.698363257
4181,63.19190574,4.268676378,1.695964676
4182,63.18607956,5.537436798,3.303663985
4183,61.73478458,6.391806832,1.607699309
4184,60.69000444,4.509771043,1.587425253
4185,60.68417826,5.778531462,3.195124562
4186,62.14129942,3.655401009,3.28338993
4187,20.51572835,8.771856646,4.37109329
4188,22.56922274,10.23429736,4.639666178
4189,21.17625658,11.40624095,4.513077698
4190,55.19632716,17.14223767,1.588440355
4191,54.48932232,16.12060182,3.878258237
4192,55.18305312,18.40814067,2.862007125
4193,64.66657802,9.386817953,5.963077083
4194,54.05731659,10.6948827,1.876940146
4195,55.45340841,12.01933897,1.393386433
4196,54.37579479,11.31178512,3.270326579
4197,54.71862936,13.24970292,1.393386433
4198,32.35294118,1.27356677,1.27356677
4199,33.96730902,1.971272746,3.294566801
4200,90.62355929,17.49763989,5.001145225
4201,89.15636621,17.49763989,5
4202,19.72248605,10.6408291,1.429145804
4203,20.36147166,11.89944292,3.184198492
4204,19.70094343,9.265058615,3.042214084
4205,97.03815334,11.3279407,1.630817506
4206,98.34879935,11.25429132,2.873032989
4207,95.91336469,11.24973567,4.111887774
4208,3.727932343,10.01832368,7.515858855
4209,2.427035734,9.995126982,6.266763441
4210,1.300896609,10.02323743,8.750904586
4211,3.058384056,11.57354866,8.233034943
4212,1.757487447,11.55035196,6.983939528
4213,4.184523181,11.54543822,5.748893798
4214,55.45312571,12.85375884,3.893386433
4215,63.2039533,1.707153172,4.195964676
4216,63.93924742,1.707153172,2.969531447
4217,60.702052,1.948247837,4.087425253
4218,61.43734612,1.948247837,2.860992024
4219,60.26136355,7.682131592,5.819246325
4220,9.377301445,13.41684184,5.849879303
4221,9.766619854,14.00790346,8.349879303
4222,11.15466205,14.86698109,6.76885445
4223,35.25150519,9.354275186,7.5
4224,34.51774361,8.080027016,7.5
4225,33.49297817,9.763998397,8.217081504
4226,32.75921658,8.489750228,8.217081504
4227,33.49380817,8.915132156,5.717081504
4228,28.32013468,9.281761674,7.970333235
4229,28.32497035,10.12060931,5.470333235
4230,29.40679978,11.00605178,7.5
4231,30.56862263,9.746029753,8.217081504
4232,30.5734583,10.58487739,5.717081504
4233,29.4867932,8.860587289,6.187414739
4234,71.63776681,5.38289292,6.009598499
4235,65.90820348,5.337777769,5.591189461
4236,33.82352941,1.27356677,1.27356677
4237,33.96730902,3.244839516,2.021000031
4238,13.21967251,4.151071525,8.403389515
4239,12.37370086,5.59165094,6.573625478
4240,13.83607815,6.533423132,8.170235963
4241,15.3618061,5.707360217,8.384841375
4242,14.51583445,7.147939631,6.555077338
4243,13.89942882,4.765588024,6.78823089
4244,97.23154147,8.76500299,8.018414451
4245,98.54218748,8.691356523,6.769319037
4246,96.10675282,8.686797962,5.49948472
4247,87.57687749,18.20468729,4.291239165
4248,65.91296386,4.484790496,8.091189461
4249,63.9919232,5.583485278,8.762858477
4250,52.95226614,18.75137522,1.27356677
4251,50.90945322,17.18208625,1.558222232
4252,68.74727668,3.704391785,6.627647922
4253,56.01475386,8.398351429,1.477817874
4254,54.93714024,7.690797578,3.35475802
4255,57.49294787,8.413470503,3.299240985
4256,72.35043163,8.152917318,8.214738758
4257,72.72956637,5.913073339,8.509598499
4258,89.14234778,15.0773557,2.5
4259,87.56285906,15.7844031,1.791239165
4260,63.93615557,2.983472303,1.695964676
4261,63.23220227,1.276319131,1.27356677
4262,61.43425427,3.224566968,1.587425253
4263,28.39260296,12.74344639,4.051151697
4264,29.10835418,13.1809266,1.551151697
4265,28.99148829,14.80754965,3.122504318
4266,52.90449923,11.82825043,1.451914524
4267,52.56166466,9.890332627,3.32885467
4268,53.22297743,12.44515285,2.845300957
4269,69.11764706,18.72643323,1.27356677
4270,68.33119563,18.34185197,2.854439989
4271,68.33119563,17.0682852,1.580873219
4272,70.95733466,17.35478442,1.82097537
4273,70.17088323,16.97020316,3.401848589
4274,70.95733466,18.62835119,3.09454214
4275,80.88313395,6.115833397,4.067651869
4276,80.8982584,7.768514263,3.131670067
4277,82.36873378,5.413531222,2.994666938
4278,69.03979654,16.06262819,3.864732532
4279,69.82624797,16.44720944,2.283859314
4280,71.66593557,16.3491274,4.104834684
4281,2.987943019,8.675922124,8.33521074
4282,4.114082144,8.64781168,5.851069595
4283,1.68704641,8.652725424,7.086115325
4284,16.16929382,1.273193023,1.266285651
4285,15.28141256,2.19581182,3.457045516
4286,15.27772818,3.469004844,2.190759865
4287,14.07554152,2.726961604,1.455807036
4288,13.18766025,3.649580401,3.646566901
4289,14.07922589,1.453768581,2.722092687
4290,7.636395074,18.32104272,5.836202904
4291,8.442587717,16.52547106,5.123395106
4292,9.629507944,18.20442833,4.287192202
4293,10.20523908,18.41116406,5.918975147
4294,11.01143172,16.6155924,5.206167349
4295,51.48167791,18.75137522,1.27356677
4296,50.89836355,18.43071103,2.831789003
4297,14.69643568,1.273193023,1.26323509
4298,12.60636775,1.453768581,2.719042126
4299,63.18922364,3.72935343,4.686237795
4300,61.74997622,2.022200258,5.490273118
4301,60.68732234,3.970448094,4.577698372
4302,86.39199537,8.926740747,8.116846469
4303,87.12657907,9.349107683,5.616846469
4304,85.98172381,10.70729231,7.5
4305,86.91201693,11.01630459,8.672921578
4306,87.64660063,11.43867152,6.172921578
4307,88.05687218,9.658119955,6.789768047
4308,85.27731695,4.189208331,8.366981103
4309,86.41548414,5.398255788,6.483827572
4310,84.5441292,4.628187041,5.866981103
4311,10.2910957,18.75083136,8.72643323
4312,8.368774301,17.07187409,8.336202904
4313,8.371796247,18.32104272,7.062636134
4314,10.94064025,18.41116406,7.145408377
4315,10.9376183,17.16199543,8.418975147
4316,67.00765568,17.0661351,8.33970187
4317,67.00765568,18.33970187,7.0661351
4318,66.24569401,16.05837721,6.05394644
4319,13.22620345,1.273584817,1.26323509
4320,12.60530928,2.727353398,1.455807036
4321,94.62536072,11.36086401,5.910214842
4322,95.75014938,11.43906904,8.429144574
4323,95.57980565,13.2851701,7.045910099
4324,84.5118704,9.859157497,8.317845598
4325,85.2464541,10.28152443,5.817845598
4326,88.23529412,18.62918331,5.833635235
4327,89.7024872,18.62918331,5.83478046
4328,89.15636621,16.1268232,5.833635235
4329,27.92309819,10.92569463,8.428638642
4330,26.84126877,10.04025217,6.398971877
4331,27.92793387,11.76454227,5.928638642
4332,61.0088748,3.300909944,7.990273118
4333,58.0746077,4.261795347,7.892797995
4334,58.81772211,2.980732181,7.892797995
4335,59.54409387,3.724222752,5.883071113
4336,56.49672582,18.35157501,7.073952768
4337,56.49457509,17.09590332,8.347519538
4338,87.12799437,7.644421382,8.116846469
4339,61.73210247,5.852483883,4.597972427
4340,60.28831035,1.278709686,8.72643323
4341,61.0146821,2.022200258,6.716706348
4342,58.82352941,1.702022495,6.619231225
4343,9.857853431,10.27327137,2.250578795
4344,8.247821872,10.52935244,1.616908181
4345,35.23458501,11.03926785,8.318261988
4346,35.23541501,10.19040161,5.818261988
4347,33.47688798,10.60012482,6.535343492
4348,87.57687749,16.83387061,5.1248744
4349,15.40795426,9.74523459,2.5
4350,16.87632868,9.748757924,2.5
4351,16.1441607,8.477304309,2.5
4352,8.465703674,9.426529819,8.242786669
4353,9.755310891,11.52515038,8.349879303
4354,90.6275406,15.08155279,2.5
4355,12.36711387,6.529065216,8.170235963
4356,11.75070824,4.146713609,8.403389515
4357,98.54218748,7.980132992,5.499357472
4358,96.92982292,6.886947627,4.487966541
4359,32.67502404,13.24033132,1.81691093
4360,31.46477478,15.52898397,1.571352622
4361,77.9183677,9.100883217,1.756868891
4362,76.50063324,11.16596229,1.614230198
4363,75.49768118,9.667142573,1.628143242
4364,75.57356943,10.56562527,3.24237344
4365,76.99130389,8.5005462,3.385012133
4366,15.41077533,11.43017565,1.817781641
4367,16.87914975,11.43369899,1.817781641
4368,16.1459765,11.00936094,4.317781641
4369,33.69929737,14.34851677,1.385710094
4370,34.05417797,12.50398609,3.202621024
4371,32.84392871,14.79263874,2.957062716
4372,72.74580308,12.3872794,2.5
4373,74.21638934,12.38967888,2.5
4374,73.48302763,11.1140152,2.5
4375,36.72493673,7.9751741,4.068923222
4376,34.68171192,6.223977218,4.521000031
4377,34.19004614,7.707402018,4.053807615
4378,11.85278853,8.166652299,1.565474626
4379,12.19040948,9.567674062,3.816053421
4380,12.89456076,7.337770325,2.97732472
4381,23.49837878,5.942863425,2.5
4382,91.85000333,18.27964089,4.123893066
4383,84.9918167,11.84105047,5.941417506
4384,84.25723299,11.41868354,8.441417506
4385,85.92210981,12.15006274,7.114339084
4386,44.93384921,3.004120636,1.572039509
4387,44.93050443,1.729219665,2.833254656
4388,45.57600536,1.274900971,1.261215147
4389,47.48668372,2.691543503,1.770960788
4390,47.48333894,1.416642533,3.032175935
4391,46.8411828,3.145862198,3.343000297
4392,84.99314986,12.68840239,8.441417506
4393,87.64793379,12.28602344,8.672921578
4394,9.197475617,8.160112734,8.242786669
4395,11.62105546,7.789917533,8.170235963
4396,16.09336419,6.97603273,8.384841375
4397,15.35715774,8.24396301,8.384841375
4398,17.11311916,8.05650258,8.642488669
4399,16.37691272,9.32443286,8.642488669
4400,17.06131738,7.402346566,7.027330044
4401,12.80472519,10.76121344,8.387924057
4402,12.40019726,10.88687453,5.638502851
4403,13.43162734,9.669937778,6.558160019
4404,76.60306806,8.458369148,1.316605614
4405,75.67600425,7.85803213,2.944748856
4406,78.09669077,7.291772775,3.073474505
4407,13.94606425,14.71608064,7.5
4408,12.47780084,14.71738397,7.5
4409,13.20693628,13.52398791,7.5
4410,45.73689048,4.085917309,3.92437576
4411,46.38239141,3.631598614,2.352336252
4412,48.289725,3.773340176,4.123297039
4413,36.6633667,6.612383015,5.143439211
4414,36.09274342,4.330951289,4.664439242
4415,38.13596824,6.082148172,4.212362433
4416,49.22579349,8.099287253,2.5
4417,49.95828755,9.376338504,2.5
4418,50.69512597,8.102857355,2.5
4419,81.5714029,10.70378081,2.5
4420,82.30218146,11.77574931,1.469503393
4421,81.56629761,12.19924294,3.969503393
4422,80.83183831,11.77328352,1.469503393
4423,47.10601945,4.917926036,2.352336252
4424,48.21031177,3.977870925,1.770960788
4425,53.30568839,9.475521474,1.876940146
4426,52.15287103,10.60888921,1.451914524
4427,8.835536357,18.75928275,8.72643323
4428,6.913214957,17.08032547,8.336202904
4429,12.29765472,12.13875353,6.73780336
4430,76.98849772,15.07257662,7.482768028
4431,78.45909612,15.07375848,7.482768028
4432,76.27396315,13.91439629,8.442566299
4433,77.74456155,13.91557814,8.442566299
4434,76.83951396,13.86480213,5.925334327
4435,49.17665878,14.10953684,6.211959842
4436,48.43753674,14.30140452,8.711959842
4437,50.26719154,15.11520049,7.084763717
4438,34.14111992,9.950604788,4.31691093
4439,34.14028992,10.79947103,1.81691093
4440,35.25150519,9.354275186,2.5
4441,34.18921614,8.556268259,1.553807615
4442,33.07883086,9.152597862,3.370718545
4443,12.47780084,14.71738397,2.5
4444,13.94606425,14.71608064,2.5
4445,12.52234576,16.21536677,2.00481994
4446,13.99060917,16.21406343,2.00481994
4447,13.25614863,15.84426226,4.50481994
4448,52.79765482,8.891180202,8.411575848
4449,54.33936749,8.065773626,6.745030014
4450,52.34350694,9.711553052,6.458999309
4451,25.07540425,5.87125153,1.463663266
4452,24.34051562,5.447509198,3.963663266
4453,26.41923515,5.211702416,3.061586231
4454,2.427035734,10.69708868,5.011230136
4455,1.757487447,12.25231366,5.728406224
4456,76.68421286,9.961003476,7.916480764
4457,75.94867909,8.677664956,7.916480764
4458,74.5546194,9.43358034,8.214738758
4459,73.81908563,8.15024182,8.214738758
4460,74.81408727,9.127104226,6.131219522
4461,2.427035734,9.283903451,4.996801876
4462,56.60091255,12.24187518,2.5
4463,58.07938926,11.42257438,1.821423111
4464,85.98172381,10.70729231,2.5
4465,87.45009889,10.70591726,2.5
4466,85.40969276,11.87854642,1.503079311
4467,86.87806783,11.87717136,1.503079311
4468,86.14427646,12.30091335,4.003079311
4469,19.71209823,10.60934617,4.187170814
4470,14.06316286,9.446760691,1.565474626
4471,14.79836403,9.025945976,4.065474626
4472,14.7993693,8.178830411,1.565474626
4473,38.22772924,14.22118309,2.5
4474,39.69396232,12.93496912,4.090909279
4475,39.69379177,13.76371213,1.590909279
4476,38.86948644,16.01430901,1.509796436
4477,40.33571952,14.72809503,3.100705715
4478,38.86965699,15.185566,4.009796436
4479,88.45760685,5.337038429,3.474355982
4480,89.45034778,4.483354703,1.34940938
4481,90.85057553,5.198662837,3.011127258
4482,58.79573357,5.970689064,2.5
4483,59.52795635,7.254848665,2.5
4484,58.21025912,7.156247584,1.477817874
4485,57.47749569,6.723231343,3.977817874
4486,57.47803634,5.872087983,1.477817874
4487,79.08930829,14.65888149,5.83901918
4488,79.99435587,14.7096575,8.356251152
4489,78.37477372,13.50070115,6.798817451
4490,2.427035734,9.995124073,3.758074339
4491,1.63619105,10.46012212,4.065213688
4492,1.63619105,11.17134275,2.82648615
4493,4.063226784,11.16643191,4.100129522
4494,61.7287445,11.08658158,2.5
4495,63.19909026,10.23414002,1.8276895
4496,63.20037595,11.08069629,4.3276895
4497,61.72949429,9.796852548,4.107699309
4498,63.19984005,8.944410993,3.435388809
4499,61.7282086,8.95029628,1.607699309
4500,73.08437961,9.432176515,8.214738758
4501,91.85398464,15.86355379,1.622747841
4502,19.83341692,14.7012131,2.5
4503,19.08456002,13.50717953,2.5
4504,18.3560869,14.70810765,2.5
4505,35.59342902,7.477919643,8.475570523
4506,36.32719061,8.752167812,8.475570523
4507,36.32802061,7.903301571,5.975570523
4508,1.653886417,8.754334273,2.870447682
4509,1.653886417,8.043113651,4.109175219
4510,4.080922151,8.749423439,4.144091053
4511,10.25318536,6.755380177,7.5
4512,9.513418135,5.487475579,7.5
4513,8.457708388,6.892208135,8.242786669
4514,9.198656563,7.30966039,5.742786669
4515,1.63619105,11.87330735,4.079641948
4516,48.79951347,9.886170309,4.316424582
4517,48.79837641,10.73542097,1.816424582
4518,48.49294371,8.032871774,3.986574886
4519,48.49180665,8.882122436,1.486574886
4520,47.33303256,9.391954241,3.302999469
4521,16.3522447,7.111650209,1.569309252
4522,16.35123943,7.958765774,4.069309252
4523,17.08441268,8.383103824,1.569309252
4524,30.86586749,4.158998772,1.605206526
4525,33.21552945,4.525064991,2.021000031
4526,32.72386367,6.008489791,1.553807615
4527,31.26976089,5.059904072,3.159014142
4528,61.76161403,1.276319131,1.27356677
4529,59.96675789,1.948247837,2.860992024
4530,16.90420434,1.430737031,2.695767966
4531,16.0126387,3.626548851,3.62024218
4532,16.90051997,2.703930054,1.429482315
4533,83.06019329,5.59071127,7.5
4534,17.61244842,12.68747118,1.817781641
4535,16.8839753,13.88839929,1.817781641
4536,17.62090917,13.51401036,4.317781641
4537,79.40567249,1.294305099,8.72643323
4538,81.4135947,2.850908382,8.44154165
4539,98.54218748,9.393318222,5.513785732
4540,14.56763623,7.802095645,8.170235963
4541,13.83142979,9.070025925,8.170235963
4542,80.87626072,1.294305099,8.72643323
4543,81.41968692,1.556603284,7.16797488
4544,60.27806373,11.06772429,4.321423111
4545,60.27677805,10.22116803,1.821423111
4546,60.27752784,8.931438997,3.429122419
4547,72.01400638,10.16668794,1.859228659
4548,72.0127686,11.01603119,4.359228659
4549,72.01160619,11.62348749,1.352931686
4550,72.01036841,12.47283075,3.852931686
4551,70.54134716,11.52550349,3.212160345
4552,64.66957208,8.528674801,4.3276895
4553,63.19912794,9.385342748,5.146935825
4554,64.66772766,11.08639789,5.290766584
4555,12.78040264,14.18176703,1.542967797
4556,11.31213924,14.18307037,1.542967797
4557,12.0459421,13.81196586,4.042967797
4558,38.96047671,13.00495323,2.5
4559,37.48410279,13.0269527,2.5
4560,18.18598402,5.026822401,2.522884303
4561,19.65755555,5.026830796,2.522884303
4562,19.06338173,6.259935303,1.61306828
4563,20.53495326,6.259943698,1.61306828
4564,19.62717584,6.194456194,4.135952583
4565,85.63055507,9.059203291,1.633790901
4566,86.36513878,9.481570226,4.133790901
4567,87.09893015,9.057828233,1.633790901
4568,57.31416057,4.664456058,6.622228552
4569,7.999005475,8.565688018,1.757555832
4570,10.99924378,5.49452786,7.5
4571,11.6222364,6.93946519,5.670235963
4572,24.83971555,13.34335832,7.5
4573,24.10706098,14.56294817,7.5
4574,25.18679942,14.69259006,8.391752151
4575,24.45414485,15.91217992,8.391752151
4576,25.03977956,15.4341314,5.891752151
4577,71.27438163,12.89675169,1.352931686
4578,22.0049765,6.261078943,1.61306828
4579,98.34879935,11.95625593,4.126188787
4580,32.85966701,15.04976942,7.511059194
4581,34.33930377,15.04339389,7.511059194
4582,33.64330276,13.86585931,8.447899939
4583,32.70318956,13.83714227,5.958959133
4584,32.163666,13.87223485,8.447899939
4585,73.32373681,13.84161347,1.600392054
4586,74.79432307,13.84401295,1.600392054
4587,74.05972358,13.41769253,4.100392054
4588,47.75931258,7.605071185,1.486574886
4589,88.55415896,11.44296975,1.573901446
4590,87.82036759,11.86671175,4.073901446
4591,87.24833654,13.03796585,3.076980757
4592,80.89136576,9.296206575,5.782278882
4593,81.62724961,8.87271295,8.282278882
4594,81.5714029,10.70378081,7.5
4595,79.91371501,11.44267284,6.177102126
4596,80.64959887,11.01917922,8.677102126
4597,79.96956172,9.611604983,6.959381008
4598,14.05501282,13.39983903,1.412828217
4599,12.15489067,12.49572426,2.955796014
4600,13.32055228,13.03003786,3.912828217
4601,83.04176419,10.29955161,1.607107067
4602,82.30588034,10.72304524,4.107107067
4603,81.61002272,9.365008058,3.874801176
4604,83.08038401,8.96077886,2.981908243
4605,82.34590657,8.941514433,1.374801176
4606,60.28831035,1.278709686,1.27356677
4607,59.96095059,3.226957523,1.587425253
4608,35.98837064,8.082530225,2.5
4609,35.98964253,10.57953629,1.521673138
4610,36.72650797,9.307791333,1.521673138
4611,35.99047253,9.730670053,4.021673138
4612,45.65747726,4.290448058,1.572039509
4613,88.23170337,1.279066433,1.27356677
4614,87.23896245,2.13275016,3.398513372
4615,75.03039345,11.16455846,1.614230198
4616,75.02915567,12.01390172,4.114230198
4617,75.76375516,12.44022214,1.614230198
4618,43.37310499,12.24564018,2.5
4619,44.83469969,12.30350395,2.5
4620,44.03596103,13.62445529,1.611700779
4621,45.49755573,13.68231906,1.611700779
4622,44.78299574,13.2432439,4.111700779
4623,93.23046276,1.994374568,4.175822721
4624,93.92539614,4.334650389,4.375758025
4625,94.65670252,2.340275821,5.22814499
4626,95.50157829,1.536857831,4.117319207
4627,96.19651167,3.877133652,4.317254511
4628,94.77027191,3.531232399,3.264932242
4629,54.93206299,5.051477295,7.5
4630,53.35366147,6.297349451,5.911575848
4631,54.27681639,6.342410193,8.411575848
4632,56.56529893,5.510702582,8.729430557
4633,54.98689742,6.756574738,7.141006405
4634,55.64214401,5.46564184,6.229430557
4635,35.97138412,14.73484246,8.707312222
4636,35.03127093,14.70612541,6.218371416
4637,34.33526992,13.52859084,7.155212162
4638,17.6288102,3.976887785,1.429482315
4639,18.19260431,3.911408676,3.952366618
4640,19.10038173,3.97689618,1.429482315
4641,7.53425103,5.656807147,8.490830165
4642,8.275199205,6.074259402,5.990830165
4643,7.219489457,7.478991959,6.733616834
4644,45.35611505,11.29494664,1.380706029
4645,43.89452035,11.23708287,1.380706029
4646,44.64155506,10.85587148,3.880706029
4647,96.86780962,13.17404177,5.247583032
4648,80.75573001,13.45411004,2.833858804
4649,30.72427943,6.867684442,2.5
4650,29.98784743,5.595661761,2.5
4651,31.98826274,7.27709779,1.553807615
4652,31.25183074,6.005075108,1.553807615
4653,31.86377377,6.499981744,4.053807615
4654,48.96171454,2.690209303,1.770960788
4655,24.34751629,4.599234562,1.463663266
4656,22.74165744,4.357013701,1.809660082
4657,22.73465677,5.205288337,4.309660082
4658,21.24125449,5.523503855,3.422728362
4659,50.6829989,10.62464476,1.451914524
4660,51.41983731,9.351163614,1.451914524
4661,50.68413596,9.775394101,3.951914524
4662,13.13384382,15.95410497,8.418975147
4663,11.66558042,15.9554083,8.418975147
4664,12.39938328,15.5843038,5.918975147
4665,56.60091255,12.24187518,7.5
4666,87.86037044,8.92536569,8.116846469
4667,88.380392,11.01492953,8.672921578
4668,55.02613759,18.35157501,7.073952768
4669,55.03941163,17.08567201,8.347519538
4670,54.42503874,18.734097,8.72643323
4671,52.54854362,18.36195439,7.099237104
4672,52.56181766,17.09605139,8.372803875
4673,53.1629165,16.71352941,6.720323413
4674,1.68704641,7.941501893,5.816153761
4675,18.25340762,10.63782205,1.429145804
4676,17.52023437,10.213484,3.929145804
4677,17.52305544,11.89842507,3.246927445
4678,64.66057196,4.268713333,1.695964676
4679,63.2034508,6.391843786,1.607699309
4680,58.76273457,15.25702692,7.703287492
4681,29.02033619,8.133928657,8.63486546
4682,30.18699471,7.712754272,6.851946964
4683,27.93850677,7.248486193,6.605198695
4684,86.75688269,1.283426945,1.27356677
4685,87.23113925,3.416177105,2.124946602
4686,59.95005895,5.79218029,1.587425253
4687,59.21783617,4.508020689,1.587425253
4688,59.21729552,5.359164049,4.087425253
4689,78.15514059,9.964941482,7.916480764
4690,78.9454466,8.559833039,6.198759645
4691,80.15690645,8.870247159,8.282278882
4692,78.40010975,8.470819164,8.488629197
4693,79.19041576,7.06571072,6.770908079
4694,77.18864989,8.160405044,6.405109961
4695,56.73874613,7.145953948,1.477817874
4696,37.46097217,7.552295381,1.568923222
4697,34.92608158,7.284523298,1.553807615
4698,65.99833435,9.471516855,5.171865546
4699,60.99483909,7.674216079,1.607699309
4700,60.26207566,7.241199837,4.107699309
4701,3.290077467,9.925642112,3.212502865
4702,7.359103439,18.75928275,8.733211605
4703,6.89536333,18.32104272,7.06941451
4704,33.23201491,1.971272746,4.521000031
4705,30.88235294,1.605206526,4.105206526
4706,82.30605987,10.28033202,5.817845598
4707,83.04194372,9.856838399,8.317845598
4708,82.36190657,8.449264165,6.600124479
4709,51.17890838,6.614705995,1.684589305
4710,49.7095759,6.611135893,1.684589305
4711,50.44320703,7.038936482,4.184589305
4712,56.1848944,13.25472168,1.393386433
4713,74.02744139,9.665738748,1.628143242
4714,74.02620361,10.51508201,4.128143242
4715,86.14560962,13.14826527,1.503079311
4716,79.39675311,2.314462556,5.192850693
4717,80.6843928,1.556603284,5.94154165
4718,14.67563317,13.52773158,8.453203308
4719,15.41476113,14.71982431,8.453203308
4720,14.68030059,14.35002314,5.953203308
4721,53.46228891,5.054080554,2.5
4722,51.92132959,5.326264838,1.684589305
4723,52.46794876,5.278600838,4.184589305
4724,55.08435327,5.815523408,3.977817874
4725,53.54339395,6.087707692,3.16240718
4726,54.5377341,5.863187408,1.477817874
4727,18.98670629,11.89159424,1.429145804
4728,18.99516704,12.71813342,3.929145804
4729,57.33451507,11.8544603,5.958153327
4730,57.33479776,11.02004042,8.458153327
4731,11.23307962,14.00006127,8.349879303
4732,11.96221505,12.80666521,8.349879303
4733,11.96688248,13.62895676,5.849879303
4734,67.60102828,11.10423738,2.5
4735,69.07159626,11.01116004,4.359228659
4736,69.07317938,10.16178127,1.859228659
4737,67.63764855,12.00802903,1.321727266
4738,69.10821653,11.91495169,3.180955925
4739,67.63606543,12.8574078,3.821727266
4740,38.21083175,11.78669877,1.521673138
4741,36.73445782,11.80869824,1.521673138
4742,37.47825483,12.17418562,4.021673138
4743,32.00429835,15.49389139,4.082411816
4744,33.21454761,13.20523874,4.327970124
4745,34.23882094,14.31342419,3.896769288
4746,15.59209898,4.096482443,8.254901572
4747,16.27185528,4.710998942,6.639742947
4748,14.12972169,3.15471025,6.658291087
4749,25.91554786,14.23377414,6.820390793
4750,25.94403024,15.90764541,8.391752151
4751,26.47271466,13.35805641,8.428638642
4752,27.82591115,12.59377156,7.161838989
4753,27.85439353,14.26764284,8.733200347
4754,27.29722673,15.14336057,7.124952498
4755,40.42653924,12.54748227,1.590909279
4756,79.17925571,11.01671343,8.677102126
4757,77.96779585,10.70629931,6.59358289
4758,58.78380576,17.70716799,5.203287492
4759,30.65675815,10.89176897,1.584986804
4760,29.94100693,10.45428875,4.084986804
4761,31.75014153,10.22973936,3.401897734
4762,19.10279374,15.98014661,1.559261825
4763,20.58012376,15.97325206,1.559261825
4764,19.8397276,15.60575767,4.059261825
4765,81.56499692,13.04828369,1.469503393
4766,80.02365076,13.23118229,1.364355412
4767,34.59150242,7.272192271,5.990102803
4768,32.83297539,7.681915483,6.707184306
4769,33.85691083,6.846810343,8.490102803
4770,34.87925725,11.1758659,3.338584067
4771,58.04932881,13.0090909,1.424105002
4772,58.79603684,11.78882726,3.245528113
4773,57.31756013,12.60812807,3.924105002
4774,65.4128636,5.484297862,1.252775925
4775,65.39549236,4.629890873,2.948740601
4776,63.93837119,6.753021327,2.860475233
4777,20.45086464,12.68848903,1.755052689
4778,20.45932539,13.51502821,4.255052689
4779,21.19972155,13.8825226,1.755052689
4780,81.63672915,6.309071317,8.282278882
4781,82.3706766,6.746778668,5.782278882
4782,82.3643189,7.601311389,8.282278882
4783,15.00644803,7.660291876,3.134783878
4784,26.92146741,16.352914,6.340989247
4785,27.45015184,13.80332499,6.377875737
4786,28.83183071,14.71291142,6.682437442
4787,29.23423247,11.53605412,1.450176003
4788,28.51848125,11.09857391,3.950176003
4789,29.04785273,9.707963242,3.035162807
4790,26.29324121,8.99543556,1.450176003
4791,27.63707211,8.335886446,3.048098968
4792,26.11844469,10.35234946,3.331817171
4793,83.81018174,4.19047969,8.366981103
4794,64.65546069,15.27496921,7.71424457
4795,35.24483516,16.03587408,8.499818611
4796,33.7651984,16.04224961,8.499818611
4797,34.30472197,16.00715703,6.010877805
4798,31.40541301,13.42978813,5.011059194
4799,57.21094875,15.90143394,8.347519538
4800,13.31588485,12.2077463,1.412828217
4801,12.58674942,13.40114237,1.412828217
4802,85.10975483,13.43499371,6.79470368
4803,86.8355788,13.57095441,8.353286174
4804,87.76453876,13.03261476,7.026207752
4805,9.234071114,15.16545315,4.287192202
4806,29.24879279,6.982162492,1.597922965
4807,29.12430382,6.205046447,4.097922965
4808,28.51236079,5.71013981,1.597922965
4809,45.67048477,1.729219665,4.076663729
4810,48.22331928,1.416642533,4.275585007
4811,88.73848683,9.835954107,1.632017739
4812,88.00469546,10.2596961,4.132017739
4813,87.65352672,8.611607076,3.265808639
4814,74.26470588,3.372461802,3.72901446
4815,74.98270396,4.175729243,1.621812455
4816,72.7768216,4.322909288,2.107202005
4817,72.24092409,5.026779162,3.616323277
4818,72.95892217,5.830046602,1.509121272
4819,74.44680644,4.879599117,3.130933727
4820,37.46779342,3.874455839,4.158452007
4821,87.86753154,6.345077488,8.116846469
4822,86.74616505,4.174777161,8.366981103
4823,47.11902697,2.356697644,4.856960471
4824,49.52422481,11.13447657,3.268339106
4825,12.04127467,12.9896743,1.542967797
4826,9.513418135,5.487475579,2.5
4827,10.55400943,5.509045948,1.411850095
4828,67.58474406,9.337217941,1.535704469
4829,67.58316094,10.18659672,4.035704469
4830,69.05531204,9.244140601,3.394933128
4831,64.6792148,17.71867534,5.21424457
4832,52.32073573,7.153875008,3.561529452
4833,53.86169505,6.881690723,4.376940146
4834,72.55718236,9.567754742,3.487371901
4835,87.82170075,12.71406367,1.573901446
4836,61.71827865,11.98744625,1.317872764
4837,63.18991011,11.98156096,3.145562265
4838,61.71956434,12.83400252,3.817872764
4839,66.13666656,10.24155667,1.8276895
4840,66.13508344,11.09093545,4.3276895
4841,66.17170371,11.99472709,3.149416766
4842,74.99126879,1.283071517,1.27356677
4843,73.52068056,1.283071517,1.27356677
4844,72.05882353,1.759820924,3.380768775
4845,73.52068056,3.042892441,2.107202005
4846,73.52941176,1.759820924,3.380768775
4847,70.53772233,15.27947598,2.283859314
4848,71.66880902,16.18705096,1.82097537
4849,10.26488259,4.139661328,8.403389515
4850,11.00583077,4.557113583,5.903389515
4851,73.82198042,7.298287295,5.714738758
4852,74.95657225,6.848848026,7.5
4853,74.19822036,5.91039784,8.509598499
4854,74.20111515,5.058443316,6.009598499
4855,83.52196328,10.99291565,6.759263104
4856,51.32778268,8.906935758,8.411575848
4857,50.97287474,11.03020646,8.04742346
4858,50.24019118,10.73738355,6.752316642
4859,49.22446692,9.932766254,8.704893182
4860,50.59509912,8.614112845,7.11646903
4861,94.71309819,7.59599271,8.438578944
4862,94.52828996,8.709617211,5.919649213
4863,95.3139389,8.877299103,7.481070268
4864,96.29156105,7.573173461,8.018414451
4865,95.5059121,7.405491569,6.456993395
4866,75.73529412,1.612640879,2.895379225
4867,75.72656291,2.895712396,1.621812455
4868,35.66718783,6.670084897,6.965673326
4869,21.27163421,4.355878456,1.809660082
4870,20.36385679,4.290390952,4.332544385
4871,19.80668296,3.240456337,3.239142397
4872,35.90937854,13.13681843,1.385710094
4873,36.65300499,14.33104882,1.385710094
4874,36.65317554,13.50230581,3.885710094
4875,7.991010189,6.031366335,1.757555832
4876,13.07357107,3.800461487,5.59414938
4877,13.68997671,6.182813093,5.360995828
4878,15.21570466,5.356750178,5.57560124
4879,73.08314183,10.28151977,5.714738758
4880,75.21273529,10.80894291,5.416480764
4881,74.80338462,12.33499012,5.942566299
4882,76.53433006,11.18057458,6.359047063
4883,74.4047366,10.65315144,6.657305057
4884,27.49944875,11.99712088,3.001327699
4885,4.649341928,11.60528295,8.233034943
4886,5.318890215,10.05005797,7.515858855
4887,5.852039272,10.81666751,6.00275229
4888,6.316858018,10.87651224,8.486893434
4889,5.182490985,12.37189249,6.719928377
4890,95.79157955,2.340275821,5.209804973
4891,96.63645531,1.536857831,4.098979189
4892,83.80672871,4.187390982,1.619865761
4893,83.07354096,4.626369692,4.119865761
4894,84.5273285,5.589439911,2.5
4895,83.82252132,6.376601442,1.374801176
4896,83.08933357,6.815580152,3.874801176
4897,30.72427943,6.867684442,7.5
4898,32.26523005,6.064771997,5.990102803
4899,32.38971902,6.841888043,8.490102803
4900,29.74373834,6.872726832,8.63486546
4901,31.28468896,6.069814386,7.124968263
4902,29.61924937,6.095610786,6.13486546
4903,88.92523955,5.518685851,8.76155707
4904,88.59455863,6.742164478,6.878403539
4905,87.47319214,4.571864152,7.128538173
4906,33.12531995,5.573280044,8.490102803
4907,30.47933927,5.604118833,8.63486546
4908,86.83424565,12.72360249,5.853286174
4909,30.709412,12.25225356,5.947899939
4910,31.30829733,14.31635682,5.019252561
4911,29.30961274,12.67412871,6.233200347
4912,29.90849807,14.73823197,5.304552969
4913,30.60738928,13.08148285,7.181100286
4914,17.65455078,5.777227483,4.092193555
4915,17.09075667,5.842706592,1.569309252
4916,18.53194849,7.010340385,3.182377532
4917,47.05438095,1.274900971,1.27356677
4918,48.96171454,1.416642533,3.044527558
4919,94.02452001,10.07955761,6.867723518
4920,92.62889297,11.86819358,6.352736811
4921,92.5318222,9.216946789,6.362171182
4922,92.51728492,7.971310885,7.19170731
4923,91.12165788,9.759946855,6.676720603
4924,92.61435568,10.62255768,7.182272939
4925,17.72831837,8.847829904,2.998455056
4926,60.26759789,11.96858897,3.139295875
4927,14.05112697,10.93992278,1.412828217
4928,14.78914921,12.20404913,3.230609858
4929,14.78632814,10.51910807,3.912828217
4930,72.4279229,17.35478442,1.82097537
4931,36.31110042,9.588294235,6.793832511
4932,36.95437833,10.88646235,8.683083659
4933,36.93828814,11.72258877,7.001345647
4934,38.03089374,9.435488735,7.158654182
4935,49.05621106,5.132090205,4.036925557
4936,48.97679784,5.336620954,1.684589305
4937,47.10594774,6.126025496,3.838911138
4938,47.02653452,6.330556246,1.486574886
4939,48.97672612,6.544720414,3.171164192
4940,59.54340853,8.945087825,1.821423111
4941,58.8106451,8.512071583,4.321423111
4942,77.42207702,8.690532663,7.916480764
4943,77.66704618,7.196410345,8.488629197
4944,50.16050338,4.192035094,3.455550093
4945,35.93680232,15.6986056,7.207130833
4946,48.52941176,1.27356677,1.27356677
4947,45.57880229,18.74389653,8.746126087
4948,47.05375288,18.74389653,8.736123701
4949,45.40628245,16.90463066,8.159709322
4950,45.40617992,18.16073413,6.90583541
4951,45.30441109,12.23468658,2.992406808
4952,85.2478694,8.576838131,8.317845598
4953,70.19535626,5.893399276,2.5
4954,69.45495512,7.178031297,2.5
4955,68.93894614,5.815102879,1.578067045
4956,69.31676137,5.282864292,4.078067045
4957,69.67934728,4.530470857,1.578067045
4958,72.05882353,1.27356677,1.27356677
4959,72.05882353,3.033387694,2.107202005
4960,54.29084347,18.35157501,5.847519538
4961,51.8132495,18.36195439,5.872803875
4962,76.19364825,7.183542638,8.488629197
4963,75.05905643,7.632981907,6.703367955
4964,66.11879922,9.323916003,3.36339397
4965,92.2122509,13.89238308,1.745447588
4966,91.6621486,13.80611007,4.245447588
4967,90.05103528,13.88579502,1.573901446
4968,89.50093299,13.79952201,4.073901446
4969,91.08564328,12.61035231,3.319349034
4970,72.58830214,13.92716482,2.953323741
4971,82.14163336,4.133105243,8.44154165
4972,83.62556927,3.170581014,6.808522753
4973,82.87558082,4.570812594,5.94154165
4974,16.88788199,15.7176572,1.82205272
4975,17.62481586,15.34326827,4.32205272
4976,18.3715227,16.61530723,3.381314545
4977,4.578900891,8.707656413,8.33521074
4978,5.575051784,8.116902104,6.006689021
4979,4.83506246,6.774500546,6.826040905
4980,6.03987053,8.176746837,8.490830165
4981,31.1675358,7.707711882,5.717081504
4982,31.29202477,8.484827928,8.217081504
4983,58.81772211,1.278709686,8.72643323
4984,57.35294118,1.702022495,6.619231225
4985,6.498509142,9.352303093,5.758645524
4986,6.963327888,9.412147825,8.242786669
4987,51.83695332,8.642026368,4.376940146
4988,52.57265467,8.217795881,1.876940146
4989,53.63899558,11.43230635,3.951914524
4990,25.91259546,2.102303048,6.63435582
4991,25.91259546,3.375869818,7.90792259
4992,25,1.27356677,8.72643323
4993,27.00709865,1.384259044,7.343235895
4994,27.00709865,2.657825815,8.616802665
4995,27.91969411,3.486562092,6.524725255
4996,23.30008043,13.43162394,8.451751703
4997,24.03273501,12.21203408,8.451751703
4998,23.88571514,12.95357542,5.951751703
4999,79.31730045,16.16549378,8.291275583
5000,78.41225287,16.11471776,5.774043611
5001,79.94751263,15.75061679,6.647526734
5002,33.40652833,9.52522286,1.81691093
5003,33.45545455,7.28202009,1.553807615
5004,70.75008227,7.12209318,1.509121272
5005,71.49048341,5.837461159,1.509121272
5006,71.1278975,6.589854593,4.009121272
5007,41.89304756,12.55217486,1.590909279
5008,43.30293831,13.54977858,3.202610058
5009,42.64008227,12.17096347,4.090909279
5010,57.3468644,1.274642927,8.72643323
5011,57.3468644,2.976665422,7.892797995
5012,57.40320869,9.372787823,5.154877276
5013,54.84740106,8.650114898,5.210394312
5014,56.07005928,7.583947582,4.81127204
5015,14.72547129,16.1679683,8.337135357
5016,13.17879032,17.03619146,6.756110504
5017,13.99101075,15.79816713,5.837135357
5018,30.53508443,7.577123243,4.084986804
5019,30.6595734,8.354239288,1.584986804
5020,29.05959779,7.691601293,3.18290977
5021,69.07077918,11.61858083,1.352931686
5022,69.10581634,13.37175124,2.674658952
5023,42.44214508,1.670274004,4.183556523
5024,40.96255547,1.670274004,4.186495256
5025,44.29556254,1.666154771,5.837963231
5026,42.81597293,1.666154771,5.840901964
5027,42.63135311,3.336428775,5.000092528
5028,24.79914888,11.47713375,1.881641168
5029,24.65212901,12.21867509,4.381641168
5030,24.83971555,13.34335832,2.5
5031,23.40618271,12.64907734,1.755052689
5032,23.25916285,13.39061868,4.255052689
5033,15.41856787,15.71934981,1.82205272
5034,14.68410733,15.34954864,4.32205272
5035,15.41466118,13.8900919,1.817781641
5036,14.68020064,13.52029073,4.317781641
5037,16.15270426,14.52355991,3.639834361
5038,13.53770852,12.03378468,8.387924057
5039,13.54237595,12.85607624,5.887924057
5040,15.01107284,12.85981991,6.841127364
5041,92.88859264,14.58811107,3.368195429
5042,27.47863422,15.47719627,7.949237095
5043,82.33959351,4.188662341,1.619865761
5044,82.35538611,6.3778728,1.374801176
5045,29.93617126,9.615441113,1.584986804
5046,28.51364558,10.25972627,1.450176003
5047,44.1973514,1.729219665,4.082753122
5048,44.38655943,3.395374437,4.899289127
5049,42.53314197,3.399493669,3.244882419
5050,52.95226614,18.75137522,8.72643323
5051,51.08904506,17.11332961,8.372803875
5052,41.05509744,1.736283239,5.939948779
5053,40.87047762,3.406557243,5.099139343
5054,42.72389508,3.402438011,6.753546051
5055,30.00577758,4.650490725,4.105206526
5056,32.35543955,5.016556944,4.521000031
5057,29.53273875,15.9477854,4.520589717
5058,28.93385342,13.88368214,5.449237095
5059,63.93391144,8.960430962,1.8276895
5060,62.46302978,7.67658722,1.607699309
5061,64.67244258,6.769041296,1.252775925
5062,65.40925285,8.036865068,3.080465425
5063,50.44982571,5.331677536,1.684589305
5064,49.68333964,3.972927507,1.770960788
5065,79.39621879,6.548467954,1.756868891
5066,79.39610594,3.914017555,1.33698974
5067,78.09657792,4.657322376,2.653595354
5068,78.08091915,5.905953885,1.316605614
5069,63.19609621,11.09228317,8.463077083
5070,63.1973819,11.93883944,5.963077083
5071,61.7287445,11.08658158,7.5
5072,61.40885876,12.02666972,8.642547
5073,61.41014445,12.87322599,6.142547
5074,62.87749616,12.87892759,7.105624083
5075,33.0042172,3.617582878,5.374689899
5076,32.12514347,1.646310132,5.853689868
5077,30.65455524,3.251516658,4.958896394
5078,54.28761912,15.8810985,8.347519538
5079,51.81002515,15.89147788,8.372803875
5080,85.32982066,3.966927817,1.396743812
5081,83.87603312,3.003857598,3.016609573
5082,84.5966329,4.405906527,3.896743812
5083,6.49662969,8.551306025,1.757555832
5084,6.031810943,8.491461292,4.273414687
5085,5.318890215,10.05005797,2.515858855
5086,4.545740898,8.809268171,1.628232198
5087,5.258661626,7.250671492,3.38578803
5088,75.13810541,5.887717717,1.316605614
5089,76.62598969,4.937270231,2.938418069
5090,74.60220789,6.591587591,2.825726886
5091,20.62185195,8.601536184,8.463287652
5092,20.61146412,8.570053254,6.221312662
5093,20.53727098,10.14762713,7.75802501
5094,22.45584747,9.557080505,8.58396915
5095,22.44545964,9.525597575,6.34199416
5096,22.53004062,7.979506633,7.047256802
5097,29.30477707,11.83528107,8.733200347
5098,8.820351255,16.59997016,3.381937963
5099,8.014158612,18.39554183,4.094745761
5100,6.827238385,16.71658456,4.930948665
5101,13.44153674,10.22063417,2.978302843
5102,70.58823529,18.72643323,1.27356677
5103,72.4279229,18.62835119,3.09454214
5104,72.05882353,18.72643323,1.27356677
5105,94.11239886,1.994374568,2.949795835
5106,96.38351439,1.536857831,2.891292321
5107,17.82095487,7.113578757,1.569309252
5108,18.98994981,9.368296987,1.429145804
5109,93.13266292,10.49825318,5.404662506
5110,32.67262739,10.79481084,1.81691093
5111,54.33240679,16.06403615,5.637337421
5112,52.98273979,17.71246114,4.789817883
5113,51.85481282,16.07441554,5.662621757
5114,19.79357993,7.530807468,1.61306828
5115,30.92763099,15.46857085,5.460296289
5116,32.41360402,15.9303132,5.93904156
5117,29.94204443,16.38420721,6.377219462
5118,31.01871179,16.40952775,4.999334988
5119,12.09048702,15.30994866,3.547787737
5120,88.19492447,3.889061643,8.675759158
5121,86.74287707,2.942239944,7.042740261
5122,88.92195156,4.286148634,7.437316228
5123,94.62320614,10.12893845,7.481070268
5124,94.11943619,11.49887885,8.429144574
5125,75.71502763,4.611087629,4.121812455
5126,73.69124584,6.265404989,4.009121272
5127,75.87042908,6.323076103,3.816605614
5128,61.72749649,9.391228035,8.319246325
5129,61.72878218,10.2377843,5.819246325
5130,56.90154198,13.62097456,2.817491435
5131,51.48167791,18.75137522,8.72643323
5132,51.07795538,18.36195439,7.099237104
5133,27.82783439,18.37707545,4.126711736
5134,27.09254027,18.37707545,2.900278506
5135,30.01058541,17.98655297,4.071352622
5136,29.27529129,17.98655297,2.844919392
5137,28.4266551,16.36362842,3.198064358
5138,76.19654304,6.331588113,5.988629197
5139,75.43819116,5.393137928,6.998227696
5140,49.81410066,11.54003827,4.863848043
5141,48.06569284,10.44259806,5.521317764
5142,50.91882978,12.67065798,6.759383303
5143,49.17042196,11.57321777,7.416853024
5144,48.74433144,12.37587249,5.528384425
5145,78.08156632,5.639091908,4.009456307
5146,9.01771342,4.725425451,5.726568395
5147,8.276765245,4.307973196,8.226568395
5148,7.038546315,4.894757019,6.71739856
5149,32.72155361,8.551608068,1.553807615
5150,15.44599754,3.745872404,5.445661437
5151,60.26495823,11.90057305,5.958153327
5152,60.26367254,11.05401678,8.458153327
5153,59.94507249,12.84066119,7.100700327
5154,76.76010111,10.85948617,4.530710962
5155,78.17783557,8.794407103,4.673349654
5156,75.75714905,9.360666459,4.544624006
5157,14.72865225,16.84753144,3.82687266
5158,28.93391805,17.96123243,5.449237095
5159,27.34998773,16.33830788,4.575948831
5160,88.56584246,13.88159793,1.573901446
5161,32.89353495,12.67172163,8.447899939
5162,35.22161632,13.54070478,8.707312222
5163,60.26371022,10.20521951,6.777399652
5164,30.47143558,11.41410668,6.950281851
5165,37.79729786,8.737180217,8.475570523
5166,38.42448558,10.87147475,8.683083659
5167,68.69982354,7.532684991,4.035704469
5168,68.32200831,8.064923578,1.535704469
5169,68.18381456,6.169756572,3.113771514
5170,6.133433938,3.003651067,8.226568395
5171,6.02778621,1.772961534,6.938448242
5172,4.380159618,1.230689533,8.711879847
5173,3.736696632,2.763432689,8.43569393
5174,3.631048905,1.532743155,7.147573777
5175,5.384323225,3.30570469,6.662262325
5176,85.24627457,10.72423764,4.107107067
5177,84.51169086,10.30187071,1.607107067
5178,84.89510583,9.07614862,3.240897968
5179,95.58468213,1.272104492,1.288077957
5180,93.97143964,3.26647906,1.661717878
5181,96.24255517,2.808962323,1.603214364
5182,60.27938798,2.022200258,5.490273118
5183,58.08823529,1.702022495,5.392797995
5184,86.08191547,1.391697216,2.670310582
5185,86.07409228,2.675124161,1.396743812
5186,86.55617203,3.524447376,3.521690414
5187,4.528045531,11.22627664,1.584270667
5188,63.19869041,7.24483106,4.107699309
5189,65.40810321,6.337285135,3.752775925
5190,19.11183289,1.430737031,3.929482315
5191,21.28308537,1.809719306,4.309660082
5192,21.14820633,3.293018077,5.329282707
5193,20.45335625,1.483298771,6.019622625
5194,18.97695385,2.914035802,4.94910494
5195,37.38807551,14.90128771,4.284222075
5196,37.38790496,15.73003072,1.784222075
5197,35.81335126,15.01115345,3.169932169
5198,64.65864043,13.69094586,6.177321653
5199,64.66155388,13.5285644,8.463077083
5200,62.87140298,14.6253324,6.35679157
5201,62.87431643,14.46295094,8.642547
5202,37.46307406,9.200435209,3.09059636
5203,77.00857037,12.76371001,8.442566299
5204,25.56846398,12.88454239,5.928638642
5205,26.57438354,15.00368226,5.449237095
5206,24.19343314,14.21242465,1.453276835
5207,24.04641327,14.95396599,3.953276835
5208,22.61288044,14.25968502,3.208329523
5209,7.441224358,12.7825857,5.986893434
5210,7.830542768,13.37364732,8.486893434
5211,8.786084162,12.27737792,6.836772738
5212,44.75555221,14.85762609,1.611700779
5213,43.70708713,15.15672174,3.775574855
5214,43.01678756,15.39228883,2.163874076
5215,42.61263875,13.78534567,1.590909279
5216,41.56417366,14.08444132,3.754783355
5217,95.3139389,8.877299103,2.481070268
5218,96.13700901,7.077448768,1.46955209
5219,11.33177426,10.28221496,2.250578795
5220,23.52941176,1.595668427,5.904331573
5221,25,1.595668427,5.904331573
5222,25.83012068,2.051940168,3.963663266
5223,24.35953245,3.647608594,4.867994839
5224,24.35953245,2.051940168,3.963663266
5225,18.32386449,8.375994486,4.11306828
5226,17.11211389,8.903618145,6.142488669
5227,19.29282295,7.955192756,5.255556949
5228,17.32019789,7.537964045,5.211797921
5229,27.94117647,1.605206526,4.105206526
5230,28.67647059,1.605206526,2.878773297
5231,26.5654148,2.051940168,2.737230036
5232,27.30070892,3.657146694,3.068869792
5233,57.30661299,13.62762416,5.203287492
5234,26.03313307,13.86344651,4.051151697
5235,26.18015294,13.12190517,1.551151697
5236,25.9925664,11.99722194,3.432792865
5237,12.59493742,9.442012974,1.565474626
5238,97.67581795,5.274447864,5.221323614
5239,97.67581795,4.160753831,5.213432948
5240,98.58673022,4.353946403,6.047647789
5241,98.58673022,3.24025237,6.039757123
5242,96.26254817,3.760050182,6.25440447
5243,48.49956239,6.325612828,1.486574886
5244,23.58379428,3.861659474,3.273323347
5245,47.33205518,3.788288358,5.919665237
5246,48.14522912,4.568939372,7.100470302
5247,47.99860662,5.494046302,5.885477568
5248,45.63059184,5.700777913,6.098902274
5249,46.44376578,6.481428928,7.279707338
5250,45.77721433,4.775670984,7.313895008
5251,47.0129689,13.66310759,8.447027019
5252,47.75209095,13.47123992,5.947027019
5253,46.11679248,14.27568331,6.606736341
5254,53.6379715,14.42796431,8.509908828
5255,52.51326888,15.26039522,6.882712703
5256,15.45970764,15.8019108,6.790338665
5257,70.61188852,5.226926175,3.087188317
5258,70.53977137,14.04985129,1.352931686
5259,72.01035931,14.05104413,1.352931686
5260,73.13939696,16.18824379,1.82097537
5261,71.66798461,15.11950271,3.173907056
5262,9.769177878,3.377611201,6.62995791
5263,43.16149763,11.16240616,2.971615308
5264,6.28062734,10.45512572,4.132767036
5265,6.745446087,10.51497045,1.616908181
5266,57.39010318,10.20563658,6.791607493
5267,65.39909656,11.51492852,1.8276895
5268,66.90007856,13.28140088,1.321727266
5269,69.81044362,8.889486907,1.859228659
5270,71.483386,8.301310203,3.368349931
5271,69.99495069,7.476746874,3.044825741
5272,94.02236543,8.847632059,8.438578944
5273,19.72291162,5.992652801,5.986171955
5274,19.15911751,6.058131911,8.463287652
5275,18.18598402,5.026822401,7.522884303
5276,19.53412767,3.963970417,6.042506928
5277,18.97033357,4.029449526,8.519622625
5278,20.50726116,4.995279927,6.982910277
5279,47.74585412,10.93492085,7.1519202
5280,47.3197636,11.73757557,5.263451601
5281,48.42449272,12.86819528,7.158986861
5282,92.6122011,9.390632125,8.753128366
5283,54.64582338,3.987398787,8.55951825
5284,53.72266846,3.942338045,6.05951825
5285,55.3559044,4.401563332,7.288948808
5286,11.08984928,15.74867257,1.787192202
5287,10.65799054,14.84325446,3.330159999
5288,11.86819707,16.87555086,3.792012142
5289,28.11847781,3.707509574,4.513129116
5290,26.64788958,2.102303048,5.40792259
5291,26.00742203,4.154243216,4.371585856
5292,36.00253393,5.379166342,6.133542014
5293,34.02087914,4.990760545,5.511102833
5294,64.65581158,5.121700606,4.195964676
5295,63.2018345,5.436747692,5.490273118
5296,47.9191934,5.698577051,8.533141316
5297,47.25264195,3.992819107,8.567328986
5298,45.55117861,5.905308662,8.746566022
5299,27.64634928,13.1265837,1.551151697
5300,27.77222757,11.48171122,1.450176003
5301,83.0366589,11.79501374,3.07661046
5302,26.46842369,1.27187664,8.72643323
5303,27.93901192,1.27187664,8.72643323
5304,28.47768689,1.384259044,7.343235895
5305,28.47552234,2.656135685,8.616802665
5306,54.04291897,8.213132814,1.876940146
5307,52.64917268,6.610042928,1.684589305
5308,55.38860824,2.713772696,8.55951825
5309,55.39468501,1.439129769,7.28595148
5310,55.39468501,3.141152263,6.452316246
5311,85.63724315,6.491971201,1.633790901
5312,84.90405539,6.930949911,4.133790901
5313,85.70654755,5.308437817,3.030534712
5314,74.05971449,14.99590591,1.600392054
5315,73.71733979,16.06436449,3.421367424
5316,84.67424351,11.89549174,3.110186378
5317,39.48773696,5.392743632,3.241766132
5318,38.20716342,6.273679849,1.568923222
5319,39.49736211,4.221484225,1.67284291
5320,38.81956214,3.185051299,3.187855706
5321,37.5389886,4.065987516,1.515012796
5322,25.17730134,3.697971475,6.312254163
5323,38.94431735,11.71671466,3.112582417
5324,45.55549773,11.20849652,8.447027019
5325,46.505012,10.31201948,6.45352701
5326,45.06058486,9.290617643,8.006499992
5327,43.47913835,9.76218896,8.465635417
5328,44.42865262,8.865711912,6.472135409
5329,44.92356549,10.78359079,6.912662435
5330,37.4383939,8.849074773,5.389094232
5331,38.17653123,10.07433588,4.41076737
5332,36.95520833,10.03759611,6.183083659
5333,37.69334566,11.26285722,5.204756797
5334,39.14126704,10.38126194,6.572177891
5335,37.06405605,7.480422851,8.475570523
5336,18.41542525,6.722079853,6.165372972
5337,63.92851043,11.51252884,1.8276895
5338,62.44769882,13.26583506,1.317872764
5339,21.80280887,10.96919769,6.209776713
5340,21.8131967,11.00068062,8.451751703
5341,23.72138537,10.37865107,7.035720853
5342,12.4912201,2.878234484,8.403389515
5343,14.86364657,2.823645401,8.254901572
5344,33.404893,12.0398181,1.81691093
5345,38.0298327,16.69441363,3.294018511
5346,94.63954257,6.054431231,6.152619092
5347,92.46202149,5.433380983,6.719265354
5348,93.17411482,4.059501395,5.994726557
5349,94.75985738,3.636202651,6.345010277
5350,92.5823363,3.015152403,6.911656539
5351,94.04776405,5.010082238,7.069549074
5352,35.97355234,11.41566272,4.839935126
5353,35.90353058,12.28405135,2.907383231
5354,66.27236156,18.33970187,5.83970187
5355,66.12531328,18.34185197,4.080873219
5356,66.09864572,16.06052731,4.295117789
5357,67.69179249,16.68155384,4.920575089
5358,21.20603223,14.78706717,3.314314513
5359,21.3587123,7.331100525,8.463287652
5360,23.19270781,8.286644846,8.58396915
5361,27.57231708,8.016688241,7.970333235
5362,28.27251859,6.868855223,8.63486546
5363,17.09737696,4.727292867,2.998791567
5364,25.9249338,9.374384866,4.851974403
5365,25.36484168,7.593728636,5.470333235
5366,27.44356122,7.357921853,4.568256201
5367,34.42916632,13.14800356,1.385710094
5368,70.58823529,1.27356677,1.27356677
5369,70.42978796,1.959967936,2.851633815
5370,68.95919973,1.959967936,2.851633815
5371,70.42978796,3.233534707,1.578067045
5372,73.08965674,6.862928909,8.214738758
5373,73.46879147,4.623084929,8.509598499
5374,58.07189555,8.934794188,1.821423111
5375,45.83510163,4.022852415,5.67958587
5376,45.98172413,3.097745486,6.894578604
5377,44.28026078,5.010235041,7.07381564
5378,41.18514204,13.75895484,1.590909279
5379,40.36083671,16.00955171,1.509796436
5380,95.58483313,6.119316963,8.438578944
5381,96.29692646,4.745437376,7.714040147
5382,96.21800543,6.031611981,5.732454598
5383,97.16329599,6.096497714,8.018414451
5384,17.39567027,5.641610003,5.907725678
5385,16.83187616,5.707089113,8.384841375
5386,18.36880375,6.672919513,6.848129027
5387,67.46427919,9.484818792,8.344176046
5388,66.1336725,11.09969982,8.463077083
5389,67.30065309,12.04581991,8.646170693
5390,65.83171419,12.89066113,7.109247776
5391,67.16232088,11.27578009,6.990346739
5392,57.89959829,5.260562968,3.065243127
5393,69.69449384,1.959967936,4.078067045
5394,68.22390561,1.959967936,4.078067045
5395,70.46740207,1.78116145,6.036458461
5396,68.99681383,1.78116145,6.036458461
5397,69.57366062,3.741129386,5.114525505
5398,70.42978796,3.71978886,3.68526905
5399,73.50914528,4.758267674,4.607202005
5400,91.06099169,5.15812914,5.78068641
5401,93.23851278,5.779179388,5.214040147
5402,92.52641945,7.153058976,5.938578944
5403,82.78730632,11.41636444,8.441417506
5404,82.05142247,11.83985806,5.941417506
5405,81.12961843,12.15525647,7.118519632
5406,81.45211668,5.289172641,6.723820532
5407,14.27295064,10.76596116,8.387924057
5408,15.84792709,11.41621071,6.853367579
5409,16.24772953,10.81629886,8.465443523
5410,17.95188917,9.974682414,7.107932192
5411,15.97711027,9.924344712,7.030412726
5412,75.6070894,13.46823579,3.214622253
5413,9.034511404,12.79763457,8.349879303
5414,7.098434317,12.16337843,8.486893434
5415,78.88959989,10.3909009,5.416480764
5416,59.54079556,11.48377093,1.821423111
5417,60.98229616,13.25004915,1.317872764
5418,60.27304646,15.92088991,8.459802483
5419,31.79906774,7.98653659,3.13879442
5420,69.11189487,1.281596275,1.27356677
5421,68.95344753,3.241564211,1.578067045
5422,70.18825885,8.35724832,4.359228659
5423,55.87627616,1.274642927,8.72643323
5424,53.92409678,1.439129769,7.28595148
5425,87.92144427,14.50656942,3.365140611
5426,98.52069372,3.357335841,4.102607164
5427,98.52069372,4.471029874,4.11049783
5428,89.10875553,10.9967486,3.205919184
5429,57.23201994,18.35157501,5.847519538
5430,57.34921182,16.11530866,4.291727847
5431,57.38893547,18.40814067,4.088440355
5432,55.797426,16.75971568,4.935959893
5433,30.70457633,11.41340592,8.447899939
5434,31.87123485,10.99223153,6.664981443
5435,50.33567943,15.90316978,8.372803875
5436,49.91754844,14.29446149,8.711959842
5437,39.42616693,4.029952547,4.316282121
5438,46.96593036,13.66289204,1.611700779
5439,46.54272705,12.93365589,3.428125361
5440,48.06280563,11.97448892,1.816424582
5441,49.41269206,13.27895865,1.373553624
5442,48.98948875,12.5497225,3.189978206
5443,47.89261347,14.23812561,2.985254402
5444,65.40360586,8.963191027,1.8276895
5445,66.142137,6.771801361,1.252775925
5446,55.87628241,1.671338127,3.9209129
5447,54.28541688,3.135096442,2.882952099
5448,54.29148741,1.463758315,3.962039199
5449,54.6593909,1.439129769,6.05951825
5450,53.06852537,2.902888083,5.021557449
5451,54.65332037,3.110467895,4.980431151
5452,53.53488539,7.628791542,8.411575848
5453,55.82336793,6.797083931,8.729430557
5454,77.92749196,1.598106518,5.904483958
5455,78.65623186,7.830412404,1.756868891
5456,77.34093222,7.187898335,1.316605614
5457,95.7556183,17.62158941,4.868477932
5458,94.62074127,17.62158941,4.886817949
5459,96.69256458,18.52097777,3.999995515
5460,95.55768755,18.52097777,4.018335532
5461,96.21665968,16.14256719,3.876943795
5462,60.29411765,18.37103098,5.959802483
5463,63.23220227,1.276319131,8.72643323
5464,61.76161403,1.276319131,8.72643323
5465,62.48217849,3.298519389,7.990273118
5466,62.48527034,2.022200258,6.716706348
5467,11.82365214,15.37756807,4.287192202
5468,84.19924822,7.718111442,3.008592077
5469,98.51901027,13.33349432,7.373191421
5470,44.24922249,11.91994899,8.695439387
5471,43.61729025,11.49504326,7.161074804
5472,45.69364964,12.94135082,7.142466406
5473,67.97436845,3.883198272,4.669256506
5474,67.39752167,1.923230335,5.591189461
5475,95.19980102,1.295926829,6.126734955
5476,94.064924,1.295926829,6.145074972
5477,40.39223873,10.83511938,4.480003511
5478,41.23734428,12.82413839,4.962829202
5479,40.46955816,11.18175961,6.261014155
5480,41.23582936,9.265011916,6.354729649
5481,42.08093491,11.25403092,6.83755534
5482,42.00361548,10.90739069,5.056544696
5483,76.93181683,5.901230885,8.488629197
5484,74.93638894,4.628086088,8.509598499
5485,98.96185243,19.01792679,5.004160755
5486,98.96185243,18.98291698,6.182042777
5487,97.53865541,18.52097777,4.593574135
5488,98.57680298,17.50389475,4.59693002
5489,98.57680298,17.53890456,3.419047997
5490,67.25059639,6.737443789,5
5491,67.99027717,6.245634056,3.752775925
5492,66.64788425,4.845968036,4.343965386
5493,54.40746867,1.271382772,8.72643323
5494,53.91980074,2.710512541,8.55951825
5495,50.97401181,10.1809558,5.54742346
5496,49.22560399,9.083515591,6.204893182
5497,68.0336693,13.32159127,8.646170693
5498,68.82947265,10.02603306,8.55504489
5499,69.56248887,11.30180441,8.55504489
5500,68.52751434,11.81699436,7.201215583
5501,5.377944335,2.378308993,4.854347671
5502,4.244500675,2.378308993,4.870299037
5503,4.510508256,1.532743155,5.925581138
5504,3.377064596,1.532743155,5.941532504
5505,3.855021998,3.911052148,5.800154394
5506,72.55375923,7.566798783,4.72386003
5507,72.93289396,5.326954803,5.018719771
5508,92.51994417,4.313536344,8.28068641
5509,93.98537192,6.30846618,8.438578944
5510,94.10568673,3.8902376,8.630970129
5511,41.58929085,15.365898,2.163874076
5512,1.038148453,19.01792679,3.825473862
5513,1.038148453,18.98291698,5.003355885
5514,1.50357313,17.44027817,6.512212861
5515,2.541721583,18.45736119,5.330170083
5516,1.50357313,17.47528798,5.334330838
5517,52.82089918,1.463758315,3.962039199
5518,53.18880266,1.439129769,6.05951825
5519,60.22259005,16.00595053,4.421554656
5520,60.2623137,18.29878254,4.218267164
5521,61.73290193,16.66981352,5.178069646
5522,5.913529579,1.230689533,8.733211605
5523,7.561156171,1.772961534,6.95978
5524,6.907245562,1.772961534,5.716455602
5525,6.251759304,4.151270527,5.591028858
5526,66.13208939,11.9490786,5.963077083
5527,67.46269607,10.33419757,5.844176046
5528,67.29906997,12.89519869,6.146170693
5529,18.33501929,9.720282036,5.25802501
5530,19.30397775,9.299480306,6.400513679
5531,52.85154051,10.29589432,4.924363606
5532,1.082531755,18.98291698,6.217699331
5533,2.586104884,18.45736119,6.54451353
5534,6.153347183,15.90342748,8.336202904
5535,6.898168203,14.66286027,8.336202904
5536,56.60407954,4.250291513,7.892797995
5537,56.89059484,14.64047066,4.096673925
5538,55.49572455,15.34144334,2.981826787
5539,55.33880902,15.28487768,4.740905971
5540,92.53023322,6.304040905,8.438578944
5541,91.06480546,4.309111069,8.28068641
5542,90.39264191,5.547771916,8.76155707
5543,90.32443019,4.677111994,7.04224348
5544,91.78985794,6.67204183,7.200136015
5545,66.24860746,15.89599575,8.33970187
5546,95.47302987,18.4834319,5.978729796
5547,96.6079069,18.4834319,5.960389778
5548,96.132002,16.10502131,5.837338059
5549,53.20644845,8.172623621,5.288515994
5550,1.038148453,1.017083019,5.003355885
5551,1.038148453,0.9820732072,3.825473862
5552,1.49379296,2.514816363,5.350511239
5553,2.531941413,1.532743155,5.346350484
5554,1.49379296,2.549826174,6.528393261
5555,70.53689792,14.21192773,3.636791
5556,25.38685066,14.73251284,3.004428531
5557,98.96185243,0.9820732072,5.004160755
5558,98.96185243,1.017083019,6.182042777
5559,98.52069372,2.518931038,3.518031672
5560,98.52069372,2.55394085,4.695913695
5561,97.48254615,1.536857831,4.69255781
5562,63.21154001,15.92732485,8.459802483
5563,61.4274823,15.27768804,7.102349483
5564,20.63068904,6.058140306,8.463287652
5565,20.4419051,4.029457921,8.519622625
5566,1.082531755,1.017083019,6.217699331
5567,2.576324714,1.532743155,6.56069393
5568,9.535065163,4.518593707,4.06372771
5569,8.794116988,4.101141452,1.56372771
5570,10.57565645,4.540164076,2.975577804
5571,2.954783026,8.777533883,1.628232198
5572,2.937087659,11.19454236,1.584270667
5573,59.23146377,1.948247837,4.087425253
5574,58.49616965,3.650270331,4.480223248
5575,16.98293071,10.39548414,5.965443523
5576,15.00815181,10.34514644,5.887924057
5577,79.38109434,4.895787088,7.692850693
5578,77.91183319,4.17943105,8.404483958
5579,13.09838496,7.798526842,8.170235963
5580,24.26470588,1.595668427,7.130764803
5581,24.26470588,2.869235197,8.404331573
5582,61.39567835,15.20543961,5.360814164
5583,63.17682261,16.01745788,4.432511734
5584,63.18082287,14.58610893,4.032117334
5585,61.70509824,15.16621614,3.036139928
5586,61.3996786,13.77409066,4.960419764
5587,23.34057044,15.22269717,5.6906412
5588,22.75493573,15.70074568,8.1906412
5589,23.68765431,16.57192891,6.582393351
5590,25,1.27356677,1.27356677
5591,23.52941176,1.27356677,1.27356677
5592,22.01837948,1.809719306,3.083226852
5593,23.48896772,3.083286077,1.809660082
5594,23.48896772,1.809719306,3.083226852
5595,42.71740171,12.5176037,5.871919923
5596,43.4836729,10.60085601,5.965635417
5597,46.51624588,9.304780028,8.006499992
5598,47.01115875,11.22265891,8.447027019
5599,64.64625649,18.63702666,3.862973337
5600,64.61958893,16.355702,4.077217907
5601,66.06568741,16.97887863,2.943846556
5602,19.11544417,18.73365614,1.269160644
5603,17.63705324,18.17640891,3.091213364
5604,17.63500187,16.91006505,1.82205272
5605,19.84991362,17.17255445,1.559261825
5606,19.85196499,18.43889832,2.828422469
5607,25.71548385,12.14300105,8.428638642
5608,24.76148344,11.75321816,6.880390345
5609,7.343081461,1.267173403,8.733211605
5610,7.56298582,3.040134937,8.226568395
5611,6.794369317,4.291576639,8.226568395
5612,4.397632011,4.05135826,8.43569393
5613,6.649740961,14.14260362,6.823096339
5614,6.353613297,13.40394565,8.486893434
5615,45.7556884,4.227383164,8.327249618
5616,70.56154209,17.72077621,4.783859314
5617,69.18684483,16.06047808,5.623561184
5618,69.21353803,18.33970187,5.83970187
5619,69.06648975,18.34185197,4.080873219
5620,94.62320614,10.12893845,2.481070268
5621,95.40744016,11.38775052,1.630817506
5622,22.05402903,1.273086074,1.27356677
5623,22.01358498,3.082805381,1.809660082
5624,32.5185466,12.02770417,5.264810869
5625,41.74024995,10.8244597,3.2503309
5626,40.97246383,9.182080925,4.548515854
5627,42.58384058,9.254352238,5.125057038
5628,46.23593235,14.85918792,1.611700779
5629,48.68269405,14.47525453,1.373553624
5630,8.012657217,5.062484463,3.321283542
5631,68.76677183,14.63916682,5.930030006
5632,67.41876777,15.25809248,6.985872563
5633,67.75576324,15.22030159,4.661429136
5634,67.33569024,13.79899033,4.967897959
5635,69.10376729,14.60137594,3.60558658
5636,4.686097207,14.13271636,8.233034943
5637,4.982224871,14.87137432,6.569237847
5638,47.11055415,16.17786459,1.710377056
5639,47.76513497,14.90444916,2.5
5640,49.42181609,14.28338685,3.873553624
5641,48.76723528,15.55680228,3.08393068
5642,29.39383455,4.155584089,1.605206526
5643,28.53029094,4.764968775,3.203129492
5644,94.76244025,15.20963627,2.372713106
5645,95.98865606,13.87586328,4.003530612
5646,95.4713829,13.84232072,1.630817506
5647,95.69938652,16.10902463,1.504230689
5648,96.92560233,14.77525164,3.135048195
5649,65.40983566,1.707153172,2.969531447
5650,66.14512977,1.707153172,4.195964676
5651,66.72197656,3.667121109,3.274031721
5652,67.48861149,1.959967936,2.851633815
5653,86.48686763,4.70798076,2.124946602
5654,87.95571573,4.69354959,2.124946602
5655,87.10609125,6.477540031,1.633790901
5656,86.86359453,6.04949076,3.758737502
5657,39.61126628,5.847651099,1.290081425
5658,40.89183982,4.966714882,2.962924335
5659,39.60164113,7.018910506,2.859004647
5660,17.6431855,18.73365614,1.266285651
5661,16.16479457,18.17640891,3.088338371
5662,54.39294081,4.222210404,1.4209129
5663,54.93955998,4.174546403,3.9209129
5664,56.01500517,4.983653258,2.898730774
5665,16.171628,18.73721695,1.266285651
5666,16.16344438,16.91362586,1.82205272
5667,8.421760051,14.51311124,2.5
5668,9.623389523,15.75651476,1.787192202
5669,8.008040192,15.94762826,1.594745761
5670,7.618721782,15.35656664,4.094745761
5671,22.11272843,5.107649582,6.867619225
5672,21.33699027,5.321700462,5.272947734
5673,22.7536736,3.405387733,5.213991655
5674,21.92394449,3.078967198,6.923954199
5675,46.9750544,14.66732024,4.111700779
5676,91.81227301,5.433278134,4.161717878
5677,46.32047358,15.94073567,3.322077835
5678,25.09482657,2.051940168,2.737230036
5679,25.09482657,3.325506938,1.463663266
5680,67.7429498,18.33970187,5.83970187
5681,67.59590151,18.34185197,4.080873219
5682,63.23529412,18.37103098,5.959802483
5683,22.00913063,8.453641129,5.25802501
5684,54.447759,18.40814067,4.088440355
5685,91.81608678,4.584260063,1.661717878
5686,90.16750594,5.794173765,1.34940938
5687,65.89559262,3.630383507,4.787154138
5688,68.76904468,13.27237815,7.044203272
5689,69.8040192,12.7571882,8.398032579
5690,70.29786424,11.2525913,6.953077469
5691,9.845679477,14.19091256,1.542967797
5692,9.456361067,13.59985094,4.042967797
5693,98.99090542,8.708966744,1.242215483
5694,97.37854086,6.904560756,1.46955209
5695,33.61284168,12.26750099,6.766161928
5696,34.49918808,12.27961492,8.318261988
5697,35.94092305,13.13648413,7.025574211
5698,98.91746825,19.01792679,3.789817308
5699,97.49427123,18.52097777,3.379230689
5700,53.35476498,3.966966591,3.962039199
5701,52.80814581,4.014630592,1.462039199
5702,17.64124465,1.430737031,3.929471076
5703,18.98276802,1.483298771,6.019611387
5704,87.60798237,7.12102887,2.98320028
5705,88.70010357,5.7650877,1.34940938
5706,23.51039493,4.991237457,5.904331573
5707,22.0937116,6.907550186,5.963287652
5708,63.92551638,12.37067199,8.463077083
5709,62.13827893,13.30505854,8.642547
5710,17.85163114,6.787558963,8.642488669
5711,19.38855873,7.753389363,7.105776321
5712,94.05153271,1.272104492,1.266611734
5713,92.57924944,1.994374568,2.928329612
5714,94.60374772,5.676255607,4.564901531
5715,93.17750796,5.330354353,3.512579262
5716,95.44862349,4.872837617,3.454075748
5717,55.76143171,18.35157501,5.847519538
5718,55.91834724,18.40814067,4.088440355
5719,63.19128871,13.68524426,5.21424457
5720,94.91196039,12.74359089,8.429144574
5721,96.37017527,13.29795659,8.616765526
5722,52.80704231,6.345013452,8.411575848
5723,28.19623866,16.70341664,7.949237095
5724,28.19862393,17.96123243,6.675670325
5725,27.9387912,18.74218422,8.72643323
5726,29.6822117,17.165159,8.427982366
5727,29.68459697,18.42297478,7.154415596
5728,69.04266999,15.90055174,1.580873219
5729,33.76692248,11.03460766,8.318261988
5730,32.02531564,9.759338207,8.217081504
5731,45.76869591,1.666154771,5.831873838
5732,31.87408046,15.96540578,8.427982366
5733,33.31913541,16.92279339,6.927800977
5734,9.834370513,11.70815947,1.542967797
5735,11.30829134,11.71710306,1.542967797
5736,10.90376341,11.84276415,3.793546592
5737,43.22030738,10.51792502,4.159421621
5738,69.18911767,14.69368942,6.73773445
5739,70.53999518,13.91268732,8.398032579
5740,69.18971828,15.89840164,8.33970187
5741,68.76964528,14.47709038,8.646170693
5742,45.56003229,12.04716357,5.947027019
5743,44.25375705,12.75861604,6.195439387
5744,93.33361762,3.290301397,5.292688007
5745,51.7509688,4.370285539,8.157890114
5746,50.27946492,4.375698236,8.157890114
5747,51.33553843,6.350426149,8.411575848
5748,51.64234137,5.613554436,6.569465962
5749,98.91746825,0.9820732072,3.789817308
5750,97.43816196,1.536857831,3.478214364
5751,36.75545311,4.038515126,8.509513752
5752,36.34891183,5.137902004,6.985084275
5753,37.8102473,6.20180732,8.475570523
5754,38.20775386,3.844440881,8.709486184
5755,37.80121258,4.943827759,7.185056707
5756,36.7464184,2.780535565,7.218999936
5757,51.69872315,11.42926206,4.499337984
5758,53.51285328,12.85071455,4.440809893
5759,76.44047096,16.27970766,8.718622273
5760,76.29148721,15.07193317,7.161188572
5761,77.00602178,16.2301135,6.201390301
5762,96.70249181,1.41977436,6.036129148
5763,97.10742394,2.956632191,5.143578686
5764,70.70797061,16.13074221,8.572042437
5765,69.3570931,16.91174431,6.911744307
5766,70.70737001,14.92602998,6.970075016
5767,29.98458708,15.52715586,1.571352622
5768,28.36666926,14.36159957,1.551151697
5769,52.21657521,13.22431132,3.741732407
5770,52.50645105,13.62987302,5.337241343
5771,54.03070534,14.64576381,3.683204315
5772,51.32891975,8.057685095,5.911575848
5773,69.8037954,12.89435218,1.352931686
5774,68.37066477,13.28380038,1.321727266
5775,27.090155,17.11925966,1.626711736
5776,27.9387912,18.74218422,1.27356677
5777,29.27290602,16.72873718,1.571352622
5778,69.06714702,13.69758429,4.783859314
5779,78.38421619,14.32999555,3.84712344
5780,77.06528501,13.54371372,4.096998226
5781,77.78421623,11.91125812,5.291332324
5782,78.27297975,13.39052686,6.159870154
5783,79.10314741,12.69753995,5.041457538
5784,94.67730334,7.217817087,1.850861384
5785,94.4924951,8.331441588,4.331931653
5786,95.31556521,6.531591252,3.320413474
5787,51.16398708,12.84450799,4.420977084
5788,50.87411124,12.43894629,2.825468148
5789,81.58794113,5.328671866,5.192850693
5790,93.90501989,15.9012303,3.995460947
5791,93.24604776,18.27964089,4.136852684
5792,94.84196617,16.80061866,3.12697853
5793,10.57560987,12.98338225,1.542967797
5794,22.0679551,18.74951663,8.72643323
5795,20.59736687,18.74951663,8.72643323
5796,20.55304613,18.18024734,6.91707443
5797,22.03276593,16.92976397,8.1906412
5798,22.02363436,18.18024734,6.91707443
5799,93.86321467,9.701379741,3.923280787
5800,94.0480229,8.58775524,1.442210519
5801,93.2265791,8.041897725,3.293071903
5802,66.11764958,7.62433607,4.035704469
5803,66.85733036,7.132526337,2.788480394
5804,47.33099748,10.73033612,1.816424582
5805,47.02442772,8.877037584,1.486574886
5806,7.676248617,7.853551146,5.000342501
5807,94.69746525,4.934586592,7.714040147
5808,38.51407931,8.2469674,6.364664756
5809,7.496476945,10.17875737,6.729680103
5810,58.85217289,18.66869262,3.831307377
5811,58.81244924,16.37586061,4.03459487
5812,60.29095718,16.96747517,3.049574541
5813,35.27753553,4.042439812,8.509513752
5814,36.33232972,6.205732006,8.475570523
5815,13.20054803,1.273584817,8.748886315
5816,12.46662315,1.604649666,7.15227583
5817,14.83904962,1.550060584,7.003787888
5818,94.83885172,16.7938934,6.783740289
5819,93.98656312,15.93205092,5.691828442
5820,97.01115557,15.4031998,7.081390478
5821,96.15886697,14.54135731,5.989478632
5822,94.86571669,15.2302294,6.935880862
5823,0.9636471412,12.80992489,8.756425895
5824,0.9636471412,11.39621883,8.750904586
5825,2.721134589,12.94653007,8.233034943
5826,1.757487447,12.96405802,6.989460837
5827,6.051855101,5.64041059,8.490830165
5828,4.641809009,4.654538641,6.926524096
5829,20.58336503,1.273086074,1.269160644
5830,19.11143548,1.27348226,1.269160644
5831,20.54771549,1.809719306,3.078820726
5832,20.54165542,3.083201567,1.809660082
5833,23.51739561,4.142962821,8.404331573
5834,22.04737237,4.141827576,8.404331573
5835,22.10071227,6.05927555,8.463287652
5836,4.816664493,1.314998883,3.848318449
5837,5.950108153,1.314998883,3.832367082
5838,5.294621895,3.693307876,3.706940338
5839,56.61157653,3.373360621,4.313710895
5840,56.61764706,1.702022495,5.392797995
5841,49.39222127,5.693633633,8.533141316
5842,49.69902421,4.95676192,6.691031431
5843,50.75509772,6.931489833,6.944717165
5844,95.67076965,2.715701189,7.171334452
5845,19.11551993,18.73365614,8.72643323
5846,20.55091899,16.91390348,8.1906412
5847,92.49443837,5.925865281,1.850861384
5848,93.2173264,7.213917199,1.850861384
5849,90.89039397,7.082225683,1.34940938
5850,91.52892711,6.540268055,3.200270764
5851,75.95157388,7.825710432,5.416480764
5852,16.90183489,18.17640891,4.322041481
5853,19.11674663,18.43889832,4.059250586
5854,91.15401228,1.289227865,1.27356677
5855,92.55064929,3.283602433,1.661717878
5856,80.16447699,6.047031913,5.975129574
5857,80.16382982,6.31389389,8.282278882
5858,80.66873403,4.137927816,8.44154165
5859,98.54218748,6.625508203,5.525697918
5860,97.1289177,5.11111052,6.558778773
5861,57.41757895,17.0768333,2.919747732
5862,7.819233804,10.89089424,8.486893434
5863,39.91197347,14.90901639,6.696506563
5864,39.7711112,14.11035236,8.371919923
5865,38.36842096,15.84859013,8.32458664
5866,37.58631725,15.52241407,7.031898863
5867,37.44545499,14.72375004,8.707312222
5868,38.9890075,13.7841763,7.079232145
5869,65.82562101,14.63706594,6.360415263
5870,65.82853446,14.47468448,8.646170693
5871,93.40750181,14.67586371,6.74825991
5872,94.70065209,13.98699162,5.80185768
5873,65.39168435,13.10313075,1.430929098
5874,64.66330951,11.81645696,3.258618598
5875,66.1642915,13.58292932,2.752656364
5876,23.28290249,10.98678541,8.451751703
5877,23.92555326,9.543185294,8.58396915
5878,13.22819708,1.604649666,5.907523061
5879,14.54447292,2.19581182,4.694893411
5880,15.60062354,1.550060584,5.759035119
5881,17.06216903,4.096211339,8.254901572
5882,17.62596314,4.03073223,5.777785875
5883,18.41031268,3.033359355,6.774524198
5884,92.93521729,12.70156143,1.745447588
5885,90.77400167,12.69497337,1.573901446
5886,69.06919606,12.4679596,3.852931686
5887,2.361229039,5.312481036,4.87174393
5888,2.361229039,4.198787003,4.863853264
5889,1.435089947,4.395346809,3.990676783
5890,1.435089947,3.281652777,3.982786117
5891,3.796318986,3.839483759,3.84785378
5892,17.06566723,16.70940169,5.057457396
5893,17.81089116,18.53299278,5.735393437
5894,19.28057897,16.9718911,4.794666501
5895,91.85665715,9.851607822,1.442210519
5896,92.92207878,11.01438812,3.187658107
5897,92.18143726,11.45416007,1.745447588
5898,90.02022165,11.44757201,1.573901446
5899,90.76086317,11.00780006,3.016111965
5900,61.73290193,18.29878254,4.218267164
5901,61.76470588,18.37103098,5.959802483
5902,69.5667369,8.753738697,8.55504489
5903,68.69114045,9.255993243,6.899220936
5904,69.94455213,8.22150011,6.05504489
5905,72.5862531,15.15678952,3.884251368
5906,32.83323768,16.08933056,1.453100441
5907,34.21239161,15.35298533,2.838810535
5908,31.97786902,16.53345253,3.024453063
5909,98.58673022,2.436857379,6.633063653
5910,97.54858265,1.41977436,6.629707769
5911,18.37646301,1.430737031,2.698642959
5912,18.37040295,2.704219291,1.429482315
5913,7.447405044,14.28161398,1.340753061
5914,7.058086634,13.69055236,3.840753061
5915,8.48200606,13.36835368,2.883720858
5916,37.73905212,6.010275642,6.119009734
5917,36.68425793,3.846983448,6.152952963
5918,38.13655868,3.652909203,6.352925395
5919,72.79411765,1.759820924,4.607202005
5920,75,1.612640879,4.121812455
5921,2.277062183,18.74574602,3.286213955
5922,1.23891373,17.76367281,3.29037471
5923,2.74248686,17.2031072,4.795070931
5924,53.68275917,14.61090196,5.79972671
5925,5.773708268,13.51135641,5.733034943
5926,91.38542557,15.80810139,5.819115336
5927,91.93154656,18.3104615,5.820260561
5928,90.46435348,16.93964482,6.652750571
5929,34.3088427,13.44503556,5.829321182
5930,1.49379296,3.353221166,5.935086731
5931,1.49379296,4.466915198,5.942977397
5932,98.99090542,7.270018014,1.237700294
5933,98.38763544,6.756680191,2.707252384
5934,27.93901192,1.27187664,1.27356677
5935,28.67430604,2.877083167,1.605206526
5936,26.56325025,3.323816808,1.463663266
5937,97.0691833,13.93976583,1.630817506
5938,97.29718693,16.20646973,1.504230689
5939,67.61246194,6.777872643,1.252775925
5940,67.47426819,4.882705637,2.830842969
5941,5.329049289,16.20910254,5.356160257
5942,5.10800906,18.32104272,5.842041478
5943,3.987583502,17.88805981,4.525795927
5944,3.607884995,16.345421,5.439470882
5945,3.386844766,18.45736119,5.925352104
5946,4.728310553,16.77840391,6.755716434
5947,24.4581376,18.39168157,5.891752151
5948,22.75892848,18.18024734,5.6906412
5949,23.46477131,17.91151616,3.953276835
5950,22.69428803,16.0917635,4.643918035
5951,24.39349715,16.30319774,4.845028986
5952,63.79920034,1.434957084,7.292503085
5953,63.79610849,2.711276216,8.566069855
5954,63.04917656,3.457157342,6.556342974
5955,18.54405815,17.26664892,8.235404676
5956,19.98158435,16.71324012,6.426045876
5957,18.54618528,18.53299278,6.961837905
5958,27.77757304,6.978290884,1.597922965
5959,27.76582798,8.994652833,1.450176003
5960,67.44641186,8.567178123,4.879880515
5961,26.46842369,1.27187664,1.27356677
5962,17.06878932,2.980797615,4.684383887
5963,17.07460349,1.550060584,5.754890334
5964,71.28005841,8.887428739,1.859228659
5965,72.21969706,7.120035012,1.509121272
5966,89.28592506,12.71334268,1.573901446
5967,89.70646851,16.21309621,8.333635235
5968,91.93552787,15.8943744,8.319115336
5969,91.22436325,14.38312262,8.70478798
5970,91.98224822,15.10967123,7.023903316
5971,89.75318886,15.42839304,7.038423214
5972,4.333832784,16.73276773,2.019957353
5973,5.706812827,16.28360165,3.614703113
5974,5.83202188,17.24024975,1.594745761
5975,3.468434648,17.59045393,1.375557402
5976,4.841414692,17.14128785,2.970303162
5977,3.343225595,16.63380583,3.395514754
5978,94.12798387,18.27964089,2.910825798
5979,96.43962365,18.52097777,2.792308646
5980,33.37276125,16.05423798,3.964159635
5981,51.81380566,4.239150876,3.146628504
5982,24.88665792,18.37707545,4.126711736
5983,25.81538375,16.76875702,5.018463887
5984,24.82201747,16.28859161,3.079988571
5985,63.92109822,13.10073106,1.430929098
5986,63.1824979,13.56976319,2.748801862
5987,40.36119964,11.25592947,2.906598625
5988,39.62771404,11.32591358,1.315689346
5989,38.14549215,10.49514597,2.837362484
5990,92.63074236,1.289227865,1.266611734
5991,72.01183,11.48632352,8.398032579
5992,71.27460544,12.75958772,8.398032579
5993,73.38142027,11.95998867,8.714100465
5994,72.64419571,13.23325287,8.714100465
5995,71.90898485,13.18164024,7.112133044
5996,96.06345339,5.535887288,4.183592237
5997,96.90832916,4.732469298,3.072766453
5998,67.64130663,1.281596275,8.72643323
5999,69.11189487,1.281596275,8.72643323
6000,66.66222755,1.923230335,6.817622691
6001,68.13281579,1.923230335,6.817622691
6002,68.12706359,3.20482661,8.091189461
6003,29.40711179,18.74278948,1.27356677
6004,30.74122661,16.72934245,1.571352622
6005,9.293731853,12.09884523,3.159875978
6006,93.35729014,9.839394589,1.442210519
6007,86.13565553,16.59244085,5.502403808
6008,85.32348392,18.38775356,6.211164642
6009,86.10628926,18.20468729,4.291239165
6010,85.21458059,16.74217703,3.253749432
6011,84.40240898,18.53748973,3.962510266
6012,84.43177525,16.92524329,5.173674909
6013,97.6398567,14.68851338,4.888722975
6014,97.6398567,15.80136242,4.874340136
6015,98.57680298,15.58790174,4.020240558
6016,98.57680298,16.70075078,4.005857719
6017,42.64019068,18.74325707,8.753794573
6018,44.108398,18.74389653,8.753794573
6019,43.93577562,18.16073413,6.913503895
6020,43.93807513,16.9039912,8.159709322
6021,30.87770003,18.74278948,1.27356677
6022,30.74587953,17.98655297,2.844919392
6023,92.97013587,14.61893169,5.064562924
6024,92.25897125,13.10767991,5.450235568
6025,90.67426096,14.29684961,6.20478798
6026,6.644366776,15.12506938,2.935498821
6027,69.06941987,12.33079563,5.898032579
6028,68.82788954,10.87541183,6.05504489
6029,29.40711179,18.74278948,8.72643323
6030,31.15053229,17.16576426,8.427982366
6031,93.46928996,15.89850836,8.319115336
6032,95.61472885,16.07147875,8.464624953
6033,95.64159381,14.50781475,8.616765526
6034,10.29030526,1.604649666,5.903389515
6035,11.75057304,1.604649666,5.902447524
6036,10.27980744,1.56612979,4.062785719
6037,10.28652962,3.170779456,4.967117225
6038,8.819539658,1.56612979,4.06372771
6039,66.17038784,1.281016838,8.72643323
6040,66.6561448,3.204247173,8.091189461
6041,93.68422483,12.67387239,5.174592162
6042,92.69633719,13.16461193,7.133932553
6043,24.29241233,4.60195081,7.134359961
6044,24.28039617,5.553576777,8.730028387
6045,22.875729,6.518263539,7.193316039
6046,70.94579694,5.082717279,4.607202005
6047,72.7507934,3.819817489,5.616800504
6048,73.29349342,8.386479551,1.628143242
6049,5.121027162,17.88805981,4.50984456
6050,6.24145272,18.32104272,5.826090112
6051,93.27122549,4.588685338,1.661717878
6052,95.54234102,4.131168601,1.603214364
6053,30.87770003,18.74278948,8.72643323
6054,31.1551852,18.42297478,7.154415596
6055,26.84708774,9.265018646,7.970333235
6056,26.45005125,10.90895161,8.428638642
6057,13.26605059,17.40463488,2.00481994
6058,48.07192967,12.97891713,4.316424582
6059,45.58491461,5.942957017,1.256855625
6060,45.66432784,5.738426268,3.609191877
6061,44.21578564,5.11094829,2.828895134
6062,14.53594836,4.742233679,2.190759865
6063,16.15874014,3.977158889,1.429482315
6064,68.21062177,4.524459055,1.578067045
6065,66.88413757,5.48722882,1.252775925
6066,13.34228626,1.453768581,3.959940582
6067,11.87138441,3.058418247,4.859196551
6068,44.32202756,7.170886683,5.506499992
6069,46.5977659,6.553767941,5.358836243
6070,44.90969434,5.33051403,4.852336252
6071,43.38858949,6.355545011,3.756855625
6072,45.07666106,7.578798922,4.263355617
6073,84.56355804,15.98315625,6.311306983
6074,85.34636338,15.80008999,4.391381506
6075,83.64248311,16.13289243,4.062652607
6076,42.47327267,10.89913641,1.659421621
6077,43.21577282,9.67925797,1.659421621
6078,44.6370205,10.01720443,1.380706029
6079,43.74172273,9.509367705,3.040127651
6080,92.58804597,8.583855353,1.442210519
6081,90.89964668,7.910206209,2.791619899
6082,6.120532686,14.84908463,4.519957353
6083,3.861799313,14.43839142,5.252992295
6084,76.47058824,1.612640879,4.121812455
6085,76.45690372,1.598106518,5.904483958
6086,74.98631549,1.598106518,5.904483958
6087,76.45690372,3.210747396,5.026296413
6088,53.1760493,3.990002046,8.55951825
6089,53.06742186,5.233270943,6.971094099
6090,52.01134836,3.25854303,6.717408365
6091,16.16726471,1.430737031,3.933615861
6092,89.61594393,1.719225573,5.78068641
6093,87.97425656,2.13275016,4.624946602
6094,88.21346531,1.328262213,6.175759158
6095,87.95242775,3.461012372,5.80070576
6096,89.59411511,3.047487786,6.956445567
6097,39.50661488,1.670274004,4.172834611
6098,38.15484616,2.359678543,5.143430912
6099,38.21700663,1.29323066,6.209477885
6100,39.4883274,2.963504664,5.382329094
6101,84.26094574,13.84196894,8.441417506
6102,82.78808982,13.84027515,8.441417506
6103,83.83085197,15.95180786,8.711164642
6104,84.31008803,14.66397441,7.152582148
6105,85.30370789,15.95350166,8.711164642
6106,31.89047932,18.42297478,5.927982366
6107,33.78159727,18.49981861,5.999818611
6108,34.27829264,17.04671817,4.952919052
6109,32.84963655,18.54689956,3.953100441
6110,32.38717469,16.96987434,4.881082807
6111,48.67607589,15.97886945,1.558222232
6112,48.76061712,17.0604172,3.268599289
6113,50.33275701,15.35780714,2.931775856
6114,94.18337893,13.95344906,8.429144574
6115,52.0646211,7.633454608,8.411575848
6116,49.96130534,8.659285104,8.704893182
6117,90.21463929,10.19765785,4.555609976
6118,88.41496701,8.479144533,4.748864208
6119,89.33652289,9.287069437,6.040438707
6120,89.85654446,11.37663328,6.596513815
6121,88.93498858,10.56870837,5.304939316
6122,1.50357313,16.63713419,5.921140559
6123,79.41176471,18.72643323,1.27356677
6124,77.94117647,18.72643323,1.27356677
6125,79.31340118,16.94467379,1.781759437
6126,79.31340118,18.21824056,3.055326207
6127,80.78398942,16.94467379,1.781759437
6128,80.88235294,18.72643323,1.27356677
6129,80.78398942,18.21824056,3.055326207
6130,3.701254282,4.728800368,2.364460463
6131,5.26506809,4.896924097,2.364460463
6132,2.99391166,6.104808195,1.628232198
6133,4.557725469,6.272931924,1.628232198
6134,4.015115456,6.132625812,3.992692661
6135,76.59939198,18.57512917,3.924870828
6136,75.37535208,16.71223212,4.5498907
6137,75.24654833,18.13710295,5.625019872
6138,74.63380525,18.62835119,4.32097537
6139,73.40976535,16.76545414,4.945995242
6140,74.76260899,17.20348036,3.245846198
6141,85.75367988,5.14695947,4.624946602
6142,31.71760301,14.75277863,6.875882306
6143,39.59915685,1.736283239,5.926288135
6144,39.58086936,3.029513899,7.135782617
6145,5.489782656,11.63134439,3.201178847
6146,76.86253593,8.151893034,4.233086378
6147,28.11847781,2.102303048,5.40792259
6148,29.41176471,1.605206526,4.105206526
6149,11.86466222,1.453768581,3.954865045
6150,59.51073511,13.07028745,1.424105002
6151,60.23753744,13.55510549,2.741977767
6152,91.19156666,17.08285712,8.319115336
6153,88.9625073,17.40157893,8.333635235
6154,67.60871495,15.2224517,2.902600485
6155,83.82352941,1.613977731,5.866981103
6156,85.29411765,1.613977731,5.866981103
6157,82.35294118,1.612160381,4.119865761
6158,83.82352941,1.612160381,4.119865761
6159,83.82352941,3.226138112,4.986846865
6160,39.85977122,15.84383283,8.32458664
6161,41.26246147,14.10559507,8.371919923
6162,45.5848429,7.151056477,2.743430512
6163,12.32210661,5.148275737,4.690759865
6164,8.302187916,1.772961534,5.726568395
6165,8.298412273,3.339091324,4.790296104
6166,1.653886417,6.688488862,4.135515665
6167,3.088976365,5.215491586,3.111625515
6168,45.06511941,10.12928469,5.506499992
6169,97.20783873,3.824935914,8.540364322
6170,63.06390622,1.434957084,6.066069855
6171,64.50315364,3.142110256,5.262034532
6172,2.104311865,14.95498378,4.535967221
6173,2.104311865,16.06783282,4.521584382
6174,1.50357313,15.52428515,5.935523398
6175,51.68183914,14.63955725,3.663371506
6176,52.68824137,13.86039878,2.766940056
6177,26.93738375,14.33696052,1.551151697
6178,24.95066395,15.42748,1.453276835
6179,92.61186961,16.59010239,4.941863177
6180,65.40375291,2.98817001,1.695964676
6181,66.17038784,1.281016838,1.27356677
6182,67.48252874,3.240984774,1.578067045
6183,19.2742683,16.06734653,8.235404676
6184,21.28112914,15.71460108,8.1906412
6185,20.57311258,14.24139924,8.735172196
6186,21.28042864,14.88729283,6.925813395
6187,19.27356779,15.24003828,6.970576871
6188,89.41930433,5.571653726,4.624946602
6189,51.43668183,14.46570724,6.001777725
6190,50.09421786,13.68034221,5.085513466
6191,47.26564946,1.431590714,6.071953206
6192,58.07406705,5.112938706,5.392797995
6193,79.41176471,1.332693023,3.83698974
6194,80.6843928,2.889296306,4.77853139
6195,70.54139032,11.48482293,8.398032579
6196,71.77029966,10.03093973,8.55504489
6197,70.29985998,10.02943914,8.55504489
6198,27.43181615,9.374283803,4.420509238
6199,93.32759099,18.3104615,5.833220179
6200,88.22721318,18.77239562,1.27356677
6201,86.84158338,18.20468729,3.064805936
6202,86.76274395,18.73599621,1.27356677
6203,86.83962144,16.94068351,1.791239165
6204,7.219517039,7.267781366,1.757555832
6205,70.54356671,10.16518735,1.859228659
6206,70.54116651,11.62198691,1.352931686
6207,70.73179036,18.57204244,6.072042437
6208,70.70509716,16.29281865,5.855901751
6209,99.05218059,12.81262449,8.756425895
6210,98.68935399,11.48739325,8.756425895
6211,97.57119085,13.31866597,8.616765526
6212,5.966004247,5.874663666,4.122016295
6213,6.508614261,6.014969778,1.757555832
6214,22.7536736,1.809719306,4.309660082
6215,94.26328615,13.9300596,4.118160695
6216,13.22933477,18.73351235,1.26323509
6217,14.69876986,18.73721695,1.26323509
6218,13.26397773,18.67112253,3.26805503
6219,14.73548568,17.40833948,2.00481994
6220,14.73683587,18.67112253,3.271105591
6221,50.76428006,15.06875188,4.789817883
6222,15.62068661,5.842977696,1.569309252
6223,15.47458517,5.492367657,3.760069117
6224,51.39189416,14.28276959,8.711959842
6225,52.09513789,13.65168692,7.22186867
6226,98.4921453,17.46634888,6.557324284
6227,97.45399773,18.4834319,6.553968399
6228,97.06894828,17.00440967,4.968855642
6229,3.393678497,12.72165689,4.817305609
6230,73.52941176,18.72643323,8.72643323
6231,75,18.72643323,8.72643323
6232,73.04066598,16.86353618,8.125019872
6233,74.51125422,16.86353618,8.125019872
6234,74.51125422,18.13710295,6.851453102
6235,72.05882353,18.72643323,8.72643323
6236,73.04066598,18.13710295,6.851453102
6237,76.45030143,4.180730401,1.621812455
6238,76.60570288,5.892718875,1.316605614
6239,2.775115191,3.811666142,1.483393316
6240,5.782128416,7.244136638,1.757555832
6241,3.831239625,7.502098785,1.628232198
6242,81.66586943,7.533940199,4.657080058
6243,53.24219827,13.27324212,1.393386433
6244,51.42806814,11.85178963,1.451914524
6245,50.89333207,13.26703556,1.373553624
6246,29.212981,1.384259044,6.116802665
6247,29.212981,2.989465571,5.222009191
6248,27.74239277,1.384259044,6.116802665
6249,83.83336022,18.60030961,6.100309613
6250,82.36277199,18.60030961,6.100309613
6251,82.93182075,18.53748973,3.962510266
6252,82.94165156,17.13779935,5.06281988
6253,14.77471496,7.28355711,4.739545215
6254,13.22183957,8.350737312,4.735710589
6255,13.92170978,6.559547859,3.756234491
6256,93.74601299,13.89651704,1.745447588
6257,94.9722288,12.56274405,3.376265094
6258,80.87556342,8.939048642,1.374801176
6259,81.61295736,7.667213565,1.374801176
6260,3.864399617,7.400487026,8.33521074
6261,5.325369257,6.869577451,8.490830165
6262,73.7759601,18.13710295,5.625019872
6263,73.16321701,18.62835119,4.32097537
6264,43.35485349,6.317896656,6.246566022
6265,45.04292506,7.541150567,6.753066014
6266,5.744207696,18.39554183,2.886515022
6267,4.371227653,18.84470791,1.291769262
6268,3.380620464,18.74574602,2.667326663
6269,64.67454154,1.707153172,4.195964676
6270,64.53449445,1.434957084,6.066069855
6271,87.62503482,5.917028217,5.241793071
6272,86.50366833,3.74672789,5.491927705
6273,7.925065013,9.817215571,4.859694849
6274,93.68207025,11.44194684,1.745447588
6275,94.18799478,11.30393199,4.226517857
6276,14.67078026,1.273193023,8.748886315
6277,16.3338788,2.823253607,8.254901572
6278,80.12668937,7.832986146,1.756868891
6279,11.85396947,7.316199956,4.065474626
6280,50.15608759,15.97192642,1.558222232
6281,50.16270575,14.4683115,1.373553624
6282,55.175838,8.106282818,8.333454166
6283,56.62785003,7.234066015,7.062884723
6284,43.03733849,17.84569224,4.674587689
6285,43.60099128,16.00642637,5.323583398
6286,44.67000729,18.16073413,5.670422935
6287,42.83820763,18.54657348,6.056566754
6288,43.40186042,16.70730761,6.705562463
6289,41.76919162,16.39226572,5.709727217
6290,4.2460186,17.88805981,3.311726614
6291,73.49682101,7.800361016,3.137264514
6292,67.64130663,1.281596275,1.27356677
6293,87.59373895,15.78795618,6.686921408
6294,88.22127569,16.20889912,8.333635235
6295,87.57972052,14.73848867,8.353286174
6296,89.11163369,13.95798259,7.058074153
6297,89.73917043,14.37892553,8.70478798
6298,17.06186049,15.70987619,6.688607984
6299,17.79693827,16.07424108,8.235404676
6300,16.88407526,14.7181317,8.453203308
6301,18.36070478,13.8839289,7.188375503
6302,19.09578256,14.24829379,8.735172196
6303,23.53854334,18.74951663,8.72643323
6304,23.73197505,17.14119821,8.391752151
6305,25.19343172,18.39168157,7.118185381
6306,23.72284348,18.39168157,7.118185381
6307,7.686215238,8.128623166,8.242786669
6308,6.76275788,6.893222178,8.490830165
6309,57.38775651,7.682548663,5.833454166
6310,55.68092462,4.205230771,5.392797995
6311,10.4006188,3.019898371,3.019534746
6312,31.48117365,17.98655297,4.071352622
6313,30.41989109,18.42297478,5.927982366
6314,1.300896609,10.02323452,1.242215483
6315,31.39286427,9.628749567,1.584986804
6316,79.91947595,13.96589458,4.720606563
6317,79.80823951,13.02642588,7.033353278
6318,98.34879935,13.32119783,4.146827374
6319,1.435089947,3.541880035,2.756286111
6320,1.653886417,5.835022088,2.901124993
6321,4.338928999,3.979789871,1.483393316
6322,59.91717041,14.61382506,6.345834492
6323,60.2265903,14.57460158,4.021160256
6324,95.63085117,18.81502365,1.288077957
6325,94.03319369,17.09466454,1.622747841
6326,96.34483348,17.33600142,1.504230689
6327,42.10627547,17.28983055,8.545853141
6328,42.10397596,18.54657348,7.299647714
6329,16.30044292,6.457494195,4.954150627
6330,27.91482093,14.78222911,4.500388792
6331,26.90890137,12.66308924,4.979790339
6332,78.40768028,5.647603918,6.18147989
6333,78.40703311,5.914465895,8.488629197
6334,76.93841913,4.93124788,6.893113155
6335,25.53371628,10.2430843,1.881641168
6336,27.04059863,10.24298324,1.450176003
6337,44.81051724,14.98713578,6.855148709
6338,45.70669366,14.37456006,8.695439387
6339,92.4906246,6.774883353,4.350861384
6340,98.38763544,6.12978351,3.976835556
6341,76.92918202,8.466881158,8.488629197
6342,80.73004355,12.71102748,5.856251152
6343,25.01169553,18.7331874,8.72643323
6344,25.20512724,17.12486897,8.391752151
6345,34.9737209,15.7124061,4.295281269
6346,36.60580125,15.40385467,5.491534298
6347,35.87090129,14.00487277,5.093022316
6348,2.4732384,1.461174767,3.39404987
6349,2.928882907,2.993917922,4.919087247
6350,1.435089947,2.443247974,3.398210625
6351,21.28743982,16.61914565,4.749903025
6352,22.0579231,18.43889832,4.059261825
6353,21.99328265,16.35041448,3.01253866
6354,9.113571026,12.98064367,1.542967797
6355,6.715296593,13.07134509,1.340753061
6356,77.55844518,12.23234652,7.119668425
6357,90.16369217,6.643191836,3.84940938
6358,20.60030932,7.225765704,5.076355932
6359,28.29058024,13.57267568,5.284352044
6360,50.16306943,18.43071103,4.058222232
6361,50.50573069,16.79266543,4.931026107
6362,50.34266127,18.36195439,5.872803875
6363,48.59754769,18.62970617,4.210377056
6364,31.24856811,4.69159433,5.853689868
6365,21.9070376,14.52841619,4.945693888
6366,22.63255388,13.74949532,6.235172196
6367,21.19902105,13.05521434,5.490224884
6368,2.104311865,15.80735455,3.292850147
6369,1.63619105,14.09062002,2.857163461
6370,1.63619105,13.23824926,4.100280535
6371,3.740502915,14.05938511,3.604228019
6372,3.976640616,12.88604624,8.233034943
6373,17.71610395,10.81982219,8.465443523
6374,17.84528714,9.327956195,8.642488669
6375,89.32198561,8.041433533,6.869974835
6376,89.64550542,9.398243108,8.753128366
6377,89.84200717,10.13099737,7.426049943
6378,85.34662135,1.391697216,3.896743812
6379,85.34662135,3.005674947,4.763724915
6380,41.70582236,1.670274004,2.942555937
6381,43.46102868,1.729219665,2.841752536
6382,3.318361584,1.461174767,3.98923189
6383,4.368482804,2.77617365,2.825873191
6384,37.54824137,1.514777295,4.015004497
6385,71.32352941,1.759820924,4.607202005
6386,71.20269618,3.540982373,5.643660466
6387,4.799353261,13.27985915,4.573788003
6388,5.468901548,11.72463417,3.856611916
6389,6.466869351,12.55108844,4.827646495
6390,23.92770712,7.863094508,6.08396915
6391,24.48779924,9.643750738,5.465610318
6392,46.594431,11.99391594,1.816424582
6393,58.79063665,13.48386306,8.458153327
6394,59.93582288,14.456516,8.642547
6395,82.15498103,1.556603284,5.94154165
6396,82.15498103,3.168763665,5.061407411
6397,66.85168337,8.058852296,1.535704469
6398,37.44562554,13.89500703,6.207312222
6399,3.122185367,18.74574602,3.881395976
6400,69.10664074,14.43929949,1.321727266
6401,90.38882814,6.396789988,6.26155707
6402,3.340932827,7.40702188,4.963442938
6403,89.69780141,18.77239562,8.72643323
6404,91.1996476,18.3104615,7.045548566
6405,88.97058824,18.62918331,7.060068464
6406,27.80183606,15.91767834,1.626711736
6407,26.80873727,15.19807213,3.177863433
6408,74.95667575,3.672637444,5.131410954
6409,80.8943004,7.598412082,8.282278882
6410,98.58673022,3.508130873,7.249635423
6411,98.54218748,5.779692673,6.727685552
6412,77.33468609,17.3015624,1.424870828
6413,77.33468609,18.57512917,2.698437599
6414,78.70691081,16.79336973,3.206630265
6415,27.46332981,17.96123243,5.449237095
6416,26.35724616,18.37707545,4.126711736
6417,43.56133087,1.666154771,7.081044191
6418,41.80045538,1.736283239,7.180091006
6419,51.63365766,18.43071103,4.058222232
6420,61.74239421,15.92568558,8.459802483
6421,61.40517062,14.46131167,8.642547
6422,39.90905316,12.02364071,5.273992938
6423,39.98637259,12.37028095,7.055003582
6424,44.10521216,18.65976717,3.852694442
6425,43.03619614,16.50545941,3.505854905
6426,44.66886494,16.8205013,4.501690151
6427,16.19854297,1.273193023,8.748705946
6428,16.36681232,1.550060584,7.003607518
6429,5.644156706,12.15727553,8.486893434
6430,98.62110851,4.493518067,8.709271101
6431,1.23891373,16.92551902,3.877184431
6432,83.08056354,8.518065648,4.692646774
6433,61.72824628,8.101499006,4.926945634
6434,4.432182889,16.03974594,8.41951353
6435,3.261060577,15.00769279,6.652548472
6436,57.35294118,1.702022495,4.166364765
6437,58.49616965,1.948247837,2.860992024
6438,22.45218231,12.25929444,5.206804392
6439,21.82557334,12.61817108,7.186923899
6440,27.03174809,6.300462653,5.878255825
6441,25.15828451,5.497872079,5.40792259
6442,27.23700405,5.262065296,4.505845555
6443,9.479843985,12.16496284,4.750578795
6444,8.888626702,11.02549891,5.737472229
6445,1.68704641,6.586877104,5.842494206
6446,4.048275449,6.031014054,5.699671203
6447,3.18083937,5.185448216,6.77090467
6448,39.77128176,13.28160935,5.871919923
6449,38.44299063,12.48111168,6.183083659
6450,38.9261762,11.29259034,5.389094232
6451,34.61239364,4.506792704,6.999616555
6452,34.59581153,5.574622706,8.490102803
6453,64.66672149,10.2387317,1.8276895
6454,47.41093985,7.334418956,6.539641308
6455,91.13079241,8.941694947,5.423592238
6456,91.86674692,10.20870932,4.365802757
6457,91.86134416,8.144821506,3.942210519
6458,93.26237396,8.420073348,4.880789463
6459,98.34879935,14.1735686,2.9037103
6460,98.57680298,16.4402725,2.777123483
6461,39.34325333,6.994206486,5.166209362
6462,39.28168331,5.631415401,6.240725351
6463,39.5400711,5.656119421,3.933520636
6464,40.7473562,6.568177736,4.887367565
6465,80.17960144,7.69971278,5.039147772
6466,56.61157653,1.671338127,2.69447967
6467,57.754805,3.619585964,3.008338153
6468,65.92693343,1.923230335,5.591189461
6469,51.46689917,1.274020711,8.72643323
6470,49.99590551,1.274020711,8.736123701
6471,51.02473898,3.093433973,8.157890114
6472,49.55743439,1.819413262,6.894013815
6473,51.02842805,1.819413262,6.884323344
6474,32.16126934,11.42671437,8.447899939
6475,8.989061231,11.80457522,1.616908181
6476,76.35075045,12.38553339,5.056796497
6477,75.07374391,14.49041385,6.567586171
6478,75.22272767,15.69818834,8.125019872
6479,75.24025173,16.85572523,6.843642145
6480,76.57557131,16.13621456,1.424870828
6481,75.68292651,16.01114247,3.025262883
6482,75.5303021,14.99709869,1.600392054
6483,77.81866537,14.37958971,1.364355412
6484,76.92602058,14.25451762,2.964747466
6485,77.97128978,15.39363349,2.78922624
6486,10.57893092,14.66024536,5.137071505
6487,58.75502925,14.39483988,4.127392495
6488,35.14847306,12.74378291,4.703972082
6489,16.09235892,7.823148295,5.884841375
6490,14.56663096,8.649211211,5.670235963
6491,40.73986833,16.3350382,3.673670512
6492,3.402497794,15.65297761,2.019957353
6493,1.298185929,15.68421253,1.272892794
6494,1.23891373,16.66504075,2.648450196
6495,2.537099659,16.51066381,1.375557402
6496,7.869812426,12.42104391,4.116908181
6497,7.278595143,11.28157999,5.103801615
6498,51.81270216,6.569533736,5.096165154
6499,50.75662865,4.594805823,4.84247942
6500,49.869385,5.912741219,5.217730622
6501,21.93067524,12.66905172,1.755052689
6502,35.2521855,18.49981861,5.999817228
6503,34.32022478,18.54689956,3.953099058
6504,2.934376979,13.93624309,1.584270667
6505,86.50366833,2.13275016,4.624946602
6506,86.81720959,1.391697216,3.896743812
6507,46.40128637,10.54628347,3.197130612
6508,30.65455524,1.646310132,5.853689868
6509,2.833818203,3.883234531,8.43569393
6510,3.027071653,6.003196436,8.33521074
6511,4.488041293,5.47228686,8.490830165
6512,50.12130394,6.976662092,8.533141316
6513,48.65178196,7.957320328,7.238034498
6514,28.85434183,8.72999865,4.55532004
6515,31.10282978,9.194266728,4.802068308
6516,36.07765314,3.0020822,5.024526548
6517,36.76470588,1.487304905,6.009505453
6518,37.52995389,2.808007955,5.22449898
6519,6.823923122,3.087960417,4.569048269
6520,98.4921453,16.6632049,5.966251982
6521,14.62411291,6.972463926,8.384841375
6522,91.1261054,10.64848126,7.923592238
6523,91.87988542,11.89588263,7.923592238
6524,93.37258323,12.75849345,8.429144574
6525,92.6188032,11.51109209,8.429144574
6526,48.52900634,1.27356677,8.736123701
6527,49.55783981,3.092980032,8.157890114
6528,90.20454952,9.840556358,1.632017739
6529,90.94519104,9.400784414,3.074228258
6530,54.99461408,6.774840728,5.833454166
6531,72.00831937,13.70245544,4.783859314
6532,62.51743079,6.852208743,5.370557785
6533,93.89165439,7.050135195,5.289440328
6534,58.81772211,1.278709686,1.27356677
6535,28.91904786,7.243443803,5.470333235
6536,32.10865802,4.200102378,8.353689868
6537,30.63662508,4.196687694,8.353689868
6538,29.00730634,5.60070415,8.63486546
6539,30.26802702,4.69663672,6.988555328
6540,5.146177679,14.61758737,3.360710414
6541,7.311721059,4.084744895,1.56372771
6542,5.837231908,3.833613988,1.342479875
6543,6.538168065,4.811353556,3.100035707
6544,7.341274864,2.881128673,2.906207585
6545,57.3468644,1.274642927,1.27356677
6546,58.49009287,3.222890764,1.587425253
6547,41.55774888,17.84569224,4.677526422
6548,41.35861802,18.54657348,6.059505487
6549,76.46429163,18.71862227,6.218622273
6550,76.59309537,17.29375144,5.143493101
6551,16.14254501,12.70363161,1.817781641
6552,54.6891614,13.83174349,4.90329526
6553,36.7231973,12.63391718,5.818261988
6554,91.11625512,7.696059042,6.253128366
6555,82.05012177,12.68889882,8.441417506
6556,79.91241432,12.2917136,8.677102126
6557,93.38774674,15.86768774,1.622747841
6558,90.200102,8.95202195,5.385146104
6559,79.97804155,16.8214671,5.07303502
6560,79.34111096,18.60322653,5.791275583
6561,80.0486953,18.21824056,4.281759437
6562,78.06998021,18.57512917,3.924870828
6563,77.99932646,17.1783557,4.716146411
6564,35.29411765,1.487304905,6.009512369
6565,36.07765314,1.514777295,4.015011413
6566,86.79866876,3.952496646,1.396743812
6567,58.82152579,10.20558725,1.821423111
6568,53.98591766,14.46282616,1.393386433
6569,51.63705147,14.4566196,1.373553624
6570,24.2733955,6.401851414,6.230028387
6571,43.55936328,4.639971157,5.827249618
6572,41.70594582,4.64409039,4.17284291
6573,43.46115214,4.703036051,4.072039509
6574,41.39015999,16.06677923,8.545853141
6575,40.03967199,16.87020055,6.870439781
6576,41.44236224,15.13196279,6.917773064
6577,41.79848779,4.710099625,5.926296433
6578,67.71913297,15.89720799,8.33970187
6579,67.29905997,14.47589673,8.646170693
6580,26.30603123,11.47703269,1.450176003
6581,47.18569211,6.966349511,8.533141316
6582,44.81767732,7.173081123,8.746566022
6583,40.09811113,14.54191228,4.663874076
6584,69.73210795,1.78116145,7.26289169
6585,86.26221459,13.89485659,4.856365485
6586,84.41978565,13.01230457,4.944496817
6587,22.0679551,18.74951663,1.27356677
6588,23.53854334,18.74951663,1.27356677
6589,22.7294772,17.91151616,2.726843605
6590,24.20006543,17.91151616,2.726843605
6591,22.73860877,16.6610328,1.453276835
6592,38.36859151,15.01984712,5.82458664
6593,45.33975593,15.47176364,4.771410101
6594,46.22288833,13.42597868,5.058727797
6595,45.78485139,8.02607115,8.006499992
6596,39.5187089,4.095961783,6.069735644
6597,76.4997342,13.59330788,1.614230198
6598,44.91661309,14.13743115,5.307140166
6599,10.27994263,4.108193733,1.56372771
6600,12.03983507,5.516098229,1.411850095
6601,5.933720295,11.7844789,1.340753061
6602,6.89545742,12.18954665,2.957661241
6603,4.678056864,12.90085284,2.925023727
6604,7.527022385,11.80183664,1.616908181
6605,25.01169553,18.7331874,1.27356677
6606,24.21176096,16.64470356,1.453276835
6607,73.52068056,1.283071517,8.72643323
6608,74.99126879,1.283071517,8.72643323
6609,74.22138163,2.059996565,7.236031729
6610,74.21265042,3.343068082,8.509598499
6611,72.7507934,2.059996565,7.236031729
6612,19.88931571,7.329004075,8.463287652
6613,18.58182934,8.058431128,8.642488669
6614,25.94030191,5.108585431,6.637950977
6615,26.14685908,7.204441988,6.700361623
6616,5.291821619,7.149059734,5.092766572
6617,60.29278849,9.399272399,8.749950078
6618,58.82900222,10.21326387,7.208103405
6619,70.53712173,14.07476376,5.681891893
6620,18.53387213,15.69985214,5.735404676
6621,17.62100912,14.34374276,5.953203308
6622,19.83271642,13.87390485,6.235172196
6623,26.66163468,17.13386579,8.391752151
6624,26.66401995,18.39168157,7.118185381
6625,71.30838285,4.330323845,2.107202005
6626,10.28415872,18.75083136,1.269561704
6627,8.828599379,18.75928275,1.269561704
6628,8.746537839,17.14637319,1.594745761
6629,7.290978495,17.15482458,1.594745761
6630,8.742622808,18.39554183,2.864307465
6631,28.90791972,15.50183532,7.949237095
6632,30.39389276,15.96357767,8.427982366
6633,83.77642115,9.876102826,4.924952665
6634,56.00750819,5.860584149,1.477817874
6635,55.8627149,4.219607145,1.4209129
6636,5.509245088,5.500104478,5.855290628
6637,42.62562255,18.65976717,3.855633175
6638,73.65054178,14.96475565,6.839120337
6639,74.85076101,14.38873809,8.714100465
6640,74.70177726,13.18096359,7.156666764
6641,42.00522212,9.745130374,8.465635417
6642,41.23895093,11.66187807,8.371919923
6643,39.9106598,10.8613804,8.683083659
6644,40.75264379,10.45353325,7.148719076
6645,80.88248678,6.382695373,1.374801176
6646,83.52178375,11.43562887,5.048524573
6647,37.52876722,16.52869475,5.108808716
6648,38.37228867,18.32362708,5.824578342
6649,37.39177267,18.20506767,4.284213777
6650,35.87925229,16.70488629,5.284040686
6651,36.72277374,18.49981861,5.999810312
6652,36.85976829,16.82344569,6.824405251
6653,6.752791258,6.618150158,5.248385997
6654,40.0567105,7.868107159,6.486380372
6655,38.91099544,8.318839929,4.458017455
6656,40.3150983,7.892811179,4.179175657
6657,66.1259962,13.69548342,5.21424457
6658,66.16261648,14.59927506,4.035971836
6659,35.92118444,18.20506767,4.284220692
6660,8.815965771,1.272220115,8.733211605
6661,9.03587013,3.045181649,8.226568395
6662,88.59479838,7.645883047,8.116846469
6663,90.37993336,8.118760465,8.753128366
6664,21.32262899,18.43889832,2.832828595
6665,84.67325565,14.33148642,4.103221652
6666,85.36322484,14.75417556,5.953428515
6667,83.52079589,13.87162354,6.041559847
6668,42.73663819,10.9820674,8.465635417
6669,41.970367,12.89881509,8.371919923
6670,43.50672234,13.13982743,8.695439387
6671,42.85101906,13.41179095,7.06735931
6672,86.10337469,14.72452096,8.353286174
6673,86.15251698,15.54652643,7.064450816
6674,10.29239869,1.272220115,8.72643323
6675,9.037589089,1.772961534,6.953001624
6676,14.69400929,16.90992126,1.82205272
6677,72.05882353,1.759820924,5.833635235
6678,73.48608751,2.059996565,6.009598499
6679,84.89769769,7.785482632,1.633790901
6680,83.08297587,7.670112872,1.374801176
6681,75.53798411,12.76131055,8.442566299
6682,74.8046224,11.48564687,8.442566299
6683,74.11478197,13.23565235,8.714100465
6684,98.99090542,8.708969653,8.750904586
6685,97.5330929,7.40028545,8.018414451
6686,41.5614622,6.245553244,6.09728614
6687,40.3541771,5.333494929,5.143439211
6688,41.81984999,6.270257264,3.790081425
6689,77.70832798,11.01277542,8.677102126
6690,65.75554553,3.35818742,6.657259317
6691,64.52052488,3.996517245,8.566069855
6692,63.83450487,4.456882201,7.328928332
6693,20.54073298,15.34710669,5.6906412
6694,72.05882353,1.27356677,8.72643323
6695,72.7507934,3.333563336,8.509598499
6696,88.51481104,14.65641275,5.853286174
6697,1.757487447,13.61725557,5.749044811
6698,75.72160961,1.598106518,7.130917187
6699,74.94299124,3.658103083,6.914082457
6700,92.19152703,11.81126157,4.669039826
6701,90.03031141,11.8046735,4.497493683
6702,40.23880285,16.16931932,5.488460716
6703,41.6414931,14.43108155,5.535793999
6704,60.23705615,13.67373691,5.203287492
6705,66.58758268,15.64482384,8.646170693
6706,77.14112213,16.0866204,3.907638857
6707,76.09585292,14.94750453,4.083160083
6708,23.46077856,15.43201451,1.453276835
6709,65.39610251,12.37307168,8.463077083
6710,66.56308309,13.31919176,8.646170693
6711,83.93466079,13.37168945,2.972582704
6712,82.78220103,12.91182657,4.910920899
6713,60.27681573,9.372370752,5.140669436
6714,58.81299178,11.0351595,5.279576438
6715,49.38560259,7.400892579,6.033141316
6716,11.02398748,2.876869781,8.403389515
6717,59.52769005,12.31661968,8.458153327
6718,60.67287627,13.28927262,8.642547
6719,35.32753786,6.849313551,8.490102803
6720,75.70134312,4.596553268,5.904483958
6721,36.77489449,18.74985507,1.27356677
6722,35.30430625,18.74985507,1.27356677
6723,35.0657075,17.29675462,1.453100441
6724,33.58493067,18.54689956,2.726667211
6725,35.0555189,18.54689956,2.726667211
6726,77.87052272,18.60322653,5.791275583
6727,77.86422612,17.3218488,7.009897856
6728,43.04423109,13.77790663,4.663874076
6729,43.17784844,14.67209388,5.859313463
6730,91.15320511,18.77239562,8.750911187
6731,92.65505129,18.3104615,7.070026523
6732,42.63809963,18.74325707,1.269713028
6733,41.07256163,18.48934596,2.779509464
6734,41.07695219,17.23260303,1.509796436
6735,43.37328,17.40302424,1.341980829
6736,41.80774199,17.14911312,2.851777265
6737,43.36888944,18.65976717,2.611693857
6738,31.42516322,12.68973377,8.447899939
6739,30.02536396,13.11160892,8.733200347
6740,46.27459228,12.48623873,8.447027019
6741,44.96831704,13.1976912,8.695439387
6742,49.42777531,17.15714426,1.558222232
6743,47.86225358,17.3561394,1.710377056
6744,10.49655025,12.80037315,8.349879303
6745,94.09770175,18.81502365,1.266611734
6746,92.59483445,18.27964089,2.889359575
6747,57.30808379,4.237076491,8.729430557
6748,42.30101577,17.84569224,3.433587104
6749,40.32929474,18.48934596,4.023448782
6750,36.66666716,16.95492274,1.784222075
6751,36.65647855,18.20506767,3.057788846
6752,34.94729157,16.75196723,3.237322516
6753,32.38259289,10.360328,5.033992434
6754,32.43151911,8.11712523,4.770889119
6755,57.41921914,8.550892195,7.083404244
6756,57.36391372,9.365296042,8.749950078
6757,44.16528709,8.782780922,4.665921613
6758,42.47721553,7.55952701,4.159421621
6759,42.74058105,7.642458,5.965635417
6760,11.02570644,1.604649666,7.129822745
6761,25.62195204,18.37707545,2.900278506
6762,46.51828096,7.96639815,4.493074878
6763,43.23184902,7.967439249,2.916277247
6764,76.43661691,4.16619604,8.404483958
6765,42.7262913,4.277216675,1.572039509
6766,44.19392084,4.273626419,1.572039509
6767,42.55261869,5.840847631,1.290081425
6768,42.64704614,5.025660543,2.862120934
6769,41.08498916,5.844437888,1.290081425
6770,27.04199574,5.71228589,1.597922965
6771,27.92346951,4.157730168,1.605206526
6772,25.81241372,4.604463809,1.463663266
6773,52.29758797,4.322621538,5.657890114
6774,7.468333436,9.23144579,1.616908181
6775,83.5205012,12.69011725,8.441417506
6776,33.82352941,18.72643323,1.27356677
6777,33.58493067,17.27333279,1.453100441
6778,20.58733487,18.43889832,4.059261825
6779,21.28834024,18.18024734,5.6906412
6780,19.2814794,18.53299278,5.735404676
6781,25.02770645,4.279849153,8.730028387
6782,56.71758921,6.274748695,5.207248431
6783,42.30540633,16.58894931,2.163874076
6784,40.97108499,4.218271014,1.67284291
6785,71.20269618,1.78116145,7.26289169
6786,26.63018261,4.654826689,7.90792259
6787,25.74529361,5.558806024,8.730028387
6788,10.36188717,16.95525969,1.787192202
6789,10.35797214,18.20442833,3.056753907
6790,6.769111046,3.944438783,3.928188173
6791,7.495305474,5.269316207,4.984124227
6792,56.75636982,5.014337626,4.370615869
6793,42.65716452,16.17997293,1.341980829
6794,44.08466123,16.20636376,1.341980829
6795,1.340025243,4.431196643,1.272892794
6796,44.77496079,15.97079667,2.953681608
6797,19.17479457,10.7913463,6.223468532
6798,19.18518239,10.82282923,8.465443523
6799,20.56003544,11.79660052,8.735172196
6800,19.19755903,12.4403197,7.200615718
6801,20.54964762,11.76511759,6.493197206
6802,77.94117647,2.945333902,2.958802195
6803,77.9255177,4.193965411,1.621812455
6804,98.72038395,15.60478669,1.272892794
6805,42.53125648,4.280689993,8.426296433
6806,44.29213198,4.210561525,8.327249618
6807,44.08762219,5.888487023,8.746566022
6808,42.51938529,5.080363509,7.172862455
6809,55.26557719,7.146965498,1.477817874
6810,44.12135819,5.926135378,1.256855625
6811,42.57448349,6.678169502,2.54693705
6812,57.36786429,15.9579996,1.588440355
6813,55.93697323,15.9325849,1.588440355
6814,57.34279066,14.21211612,1.424105002
6815,57.36015896,15.09581256,3.012545357
6816,58.77368171,14.23753082,1.424105002
6817,95.62381255,18.81502365,8.712297882
6818,96.34792736,18.4834319,7.176922835
6819,96.2601758,17.29845555,8.464624953
6820,94.11473692,17.12548516,8.319115336
6821,94.20248847,18.3104615,7.031413218
6822,35.34235902,2.788344065,1.515012796
6823,35.34235902,1.514777295,2.788579566
6824,48.57242865,6.620241565,4.852336252
6825,91.19076151,18.77630201,1.27356677
6826,92.60298353,17.0559429,1.622747841
6827,58.84210773,9.380415116,5.571373188
6828,92.66749159,18.77630201,1.266611734
6829,34.70260314,3.458577651,5.530513783
6830,33.82352941,1.487304905,6.009513752
6831,33.59573171,3.133615037,6.86320362
6832,81.94594697,13.4236111,6.797668658
6833,81.4667109,14.71144456,8.356251152
6834,82.34072828,16.16436392,8.600309613
6835,81.49858543,15.74769987,6.956560765
6836,82.81996434,14.87653046,7.041727119
6837,91.12006889,6.847040971,8.753128366
6838,90.37969361,7.215041896,7.514685436
6839,6.619216259,18.39554183,4.084632968
6840,69.72635576,3.062757724,8.536458461
6841,34.70260314,1.971272746,4.520998647
6842,77.92616487,3.927103434,4.314663148
6843,92.6461652,18.77630201,8.750911187
6844,92.68452675,17.08676351,8.319115336
6845,1.63619105,12.61671045,2.815621689
6846,7.364948121,18.75928275,1.27356677
6847,7.27897155,18.39554183,2.868312531
6848,40.39384537,9.672859061,7.889094232
6849,40.82610327,8.348225618,8.59728614
6850,41.66808725,7.940378472,7.062921557
6851,50.29313393,1.819413262,5.657890114
6852,51.76372217,1.819413262,5.657890114
6853,51.64344487,3.283171576,4.619929313
6854,51.35031094,1.463758315,3.962039199
6855,98.99090542,7.295240321,8.748039083
6856,98.54218748,7.277627191,6.766453534
6857,14.88299343,7.108081405,1.569309252
6858,13.50879934,5.520456145,1.411850095
6859,12.77110616,6.785559855,1.411850095
6860,14.44743616,6.270590123,2.981159347
6861,41.06362695,4.28428025,8.426296433
6862,42.61999266,5.89207728,8.746566022
6863,52.97951544,15.24198463,2.289817883
6864,55.1409883,1.671338127,2.69447967
6865,53.55619329,1.463758315,2.735605969
6866,8.560473163,12.16611702,8.486893434
6867,51.63043331,15.96023452,1.558222232
6868,92.57695103,14.67273214,1.622747841
6869,22.05882353,1.595668427,5.904331573
6870,71.69262878,18.62835119,4.32097537
6871,39.82822926,18.32362708,5.838238986
6872,39.0103487,16.81297303,4.834383077
6873,40.54073747,17.03591943,5.055649577
6874,38.90767115,9.68295342,7.889094232
6875,39.64796293,8.423404985,7.889094232
6876,47.75708799,9.927681401,8.704893182
6877,47.25094124,9.017041968,6.711393174
6878,40.08022083,7.098771542,8.59728614
6879,58.83110171,16.21855155,1.331307377
6880,58.82339638,15.35636451,2.75541238
6881,95.40959474,12.61967607,5.059962079
6882,85.36293015,13.57266927,8.353286174
6883,1.49379296,3.621099669,7.144965031
6884,1.68704641,5.741061574,7.044481841
6885,38.89513711,11.71340043,3.815689346
6886,39.59341352,9.613550688,4.204783578
6887,13.33011803,8.175261608,1.565474626
6888,86.36655408,7.776883925,1.633790901
6889,11.86479742,3.995832524,1.455807036
6890,12.16051124,4.427802867,2.867657131
6891,49.90310552,11.86604068,8.711959842
6892,1.298185929,14.21030295,1.231351022
6893,57.33324305,4.231110979,1.4209129
6894,37.66071637,12.98367863,7.390395882
6895,83.77582089,14.20135382,1.469503393
6896,85.4134055,14.30183182,1.503079311
6897,84.38263296,16.10323783,1.462510266
6898,84.54147286,15.27357346,2.965589578
6899,82.90388824,15.17309545,2.932013659
6900,94.47459445,12.68665887,1.745447588
6901,96.19996435,12.63246255,1.630817506
6902,78.04616971,16.13739642,1.424870828
6903,80.0248848,15.78050781,1.781759437
6904,79.95000487,15.03674488,3.146114848
6905,79.28926377,14.38077157,1.364355412
6906,83.82352941,18.72643323,1.27356677
6907,85.29411765,18.72643323,1.27356677
6908,85.1377031,18.53748973,2.736077037
6909,83.66711486,17.26392296,1.462510266
6910,83.66711486,18.53748973,2.736077037
6911,93.25312125,7.592092823,8.438578944
6912,91.84295692,8.135092889,8.753128366
6913,85.13574117,17.27348595,1.462510266
6914,75.38131835,13.7893242,5.042958353
6915,74.33008287,15.57311626,4.725411926
6916,73.95811622,14.263666,5.314492519
6917,14.78289665,12.21337873,1.412828217
6918,25.52789731,11.01831783,5.31027981
6919,27.03477966,11.01821676,4.878814645
6920,98.51901027,13.98669186,6.132775394
6921,40.50385868,12.8941225,8.371919923
6922,71.46708448,17.29847567,8.572042437
6923,72.44892693,16.70914539,6.697062309
6924,71.46708448,18.57204244,7.298475667
6925,23.5383962,6.825401752,8.730028387
6926,73.38018249,12.80933193,6.214100465
6927,58.78293133,12.62167602,4.882258329
6928,60.24800329,12.65424081,3.924105002
6929,82.30296496,14.19966002,1.469503393
6930,82.90977704,16.10154404,1.462510266
6931,17.80376178,2.823542845,8.254901572
6932,19.71192631,2.756781032,8.519622625
6933,17.61254838,13.51720358,8.453203308
6934,19.82425568,13.04736567,8.735172196
6935,64.62250238,16.19332054,1.362973337
6936,63.15335658,16.19168126,1.362973337
6937,61.71459051,14.42208819,1.317872764
6938,63.14786456,15.50446026,2.680846101
6939,63.18373632,14.42372747,1.317872764
6940,47.25113074,8.03281363,8.006499992
6941,48.65197146,6.973091991,8.533141316
6942,98.72038395,14.13087712,1.231351022
6943,98.34879935,12.69965902,2.862168528
6944,63.1438643,16.93580921,3.081240501
6945,61.71059026,15.85343714,1.718267164
6946,19.31436558,9.330963236,8.642488669
6947,98.62110851,5.991452585,8.748039083
6948,41.18228743,18.73364541,1.269713028
6949,39.62113999,17.22299137,1.509796436
6950,90.20923653,8.133770042,4.132017739
6951,89.33112014,7.223181624,5.616846469
6952,26.37255056,15.89303929,1.626711736
6953,94.07637536,18.81502365,8.750911187
6954,75.78827848,15.64859418,5.6077879
6955,49.41519794,15.78700177,4.058222232
6956,25.92872583,18.39168157,5.891752151
6957,39.71726159,18.73364541,1.265067507
6958,39.60753579,18.48934596,2.774863943
6959,56.60549975,2.945981054,1.4209129
6960,86.24535314,14.94077102,3.294318477
6961,86.88975133,14.31579953,1.503079311
6962,86.93532232,15.36346016,5.144525339
6963,87.93830572,13.46065499,4.927187619
6964,23.84514847,11.08735085,5.333392871
6965,49.69700866,1.416642533,4.270960788
6966,51.0473196,2.880400847,3.232999987
6967,49.99014259,3.236055794,4.928850902
6968,1.340025243,5.9115601,1.237700294
6969,1.653886417,7.315385544,2.865932492
6970,21.98697197,15.44586991,1.453276835
6971,60.24124251,15.84864147,1.718267164
6972,60.24524277,14.41729252,1.317872764
6973,60.29495744,15.53612622,2.649180141
6974,18.44940263,12.07359438,8.465443523
6975,16.98585173,12.91015761,6.91864683
6976,66.10155917,15.89814585,1.580873219
6977,66.10032075,15.04418157,3.011802317
6978,64.65713572,14.25862347,1.430929098
6979,66.16552993,14.4368936,1.321727266
6980,64.62126396,15.33935626,2.793902435
6981,77.23434142,12.44262161,1.614230198
6982,78.5532726,13.22890344,1.364355412
6983,42.79881681,14.3466074,8.695439387
6984,42.97871758,15.37297512,7.241292528
6985,40.24011576,2.94436518,1.67284291
6986,38.28174225,2.788868472,1.515012796
6987,76.27486219,11.48705069,8.442566299
6988,38.53758964,7.477631782,8.475570523
6989,30.45577154,3.030569176,6.970492533
6990,12.17837359,11.06083615,3.663407012
6991,12.58290152,10.93517506,1.412828217
6992,63.19296374,12.66889852,3.930929098
6993,64.66031546,12.67460011,4.894006181
6994,64.65422227,14.42100493,4.145173668
6995,66.12767123,12.67913767,3.930929098
6996,73.62755559,8.833243322,4.842882
6997,25.40995318,9.534384518,8.58396915
6998,26.13518252,8.286054113,8.58396915
6999,25.8011707,8.665685082,6.554302386
7000,5.361993369,18.32104272,7.048082751
7001,3.640829075,18.45736119,7.131393377
7002,24.70972452,7.47380786,7.313997538
7003,55.47835624,14.45774689,1.393386433
7004,86.76470588,18.62918331,5.833635235
7005,86.79407215,17.01693688,7.044799877
7006,63.23529412,18.72643323,1.27356677
7007,61.76470588,18.72643323,1.27356677
7008,60.99760782,17.02521577,1.718267164
7009,62.46819605,18.29878254,2.991833934
7010,62.46819605,17.02521577,1.718267164
7011,60.29411765,18.72643323,1.27356677
7012,60.99760782,18.29878254,2.991833934
7013,27.18168019,12.14767958,8.428638642
7014,28.56335906,13.05726601,8.733200347
7015,4.340051743,14.49444535,1.340753061
7016,36.75983785,1.275843651,1.27356677
7017,35.28924961,1.275843651,1.27356677
7018,36.81294725,1.514777295,2.788579566
7019,36.80807922,2.790620946,1.515012796
7020,45.87987101,11.55484078,4.316424582
7021,0.9636471412,12.84158363,1.231351022
7022,2.599838191,12.56752376,1.584270667
7023,11.08977572,18.20442833,4.286250211
7024,11.66550686,18.41116406,5.918033156
7025,74.7650422,7.531849528,4.128143242
7026,77.17060427,5.312909306,5.192850693
7027,58.80842028,11.038436,8.458153327
7028,58.83753623,9.383691623,8.749950078
7029,12.40928524,17.14467641,8.418975147
7030,14.00091271,17.35853975,8.337135357
7031,33.52921336,6.474185344,5.043910418
7032,91.1250224,8.567522928,1.442210519
7033,89.42737041,7.065893259,1.34940938
7034,29.18835366,8.35036768,1.584986804
7035,12.66282769,6.961035559,4.582086057
7036,13.3626979,5.169846107,3.60260996
7037,71.90958545,14.38635247,8.714100465
7038,72.07696028,15.39969514,7.286142902
7039,44.00508826,9.592298695,4.846341446
7040,45.58653477,9.120727378,4.387206021
7041,4.590885462,6.171320166,8.33521074
7042,91.94732964,13.19230097,8.70478798
7043,91.20363938,12.30200111,6.628380217
7044,60.30044945,16.22334722,1.331307377
7045,39.67294722,1.29323066,6.223138529
7046,41.7418566,9.662199384,1.659421621
7047,41.16163149,11.31523784,1.590909279
7048,40.24079652,1.670274004,2.937910417
7049,38.28242301,1.514777295,2.780080303
7050,52.8942521,13.23838027,8.509908828
7051,50.64817476,13.09318555,8.711959842
7052,64.5157645,4.849504518,6.066069855
7053,64.6997996,1.281016838,1.27356677
7054,1.340025243,4.438847888,8.709271101
7055,82.19941698,14.74279295,5.956393493
7056,83.07343435,16.19571231,6.200451954
7057,38.87335415,18.48934596,4.009788137
7058,86.77541033,7.701018658,4.75063737
7059,42.8176567,16.09317007,8.545853141
7060,44.22631352,14.37299823,8.695439387
7061,24.66259575,8.286836839,8.58396915
7062,26.48228376,18.7331874,8.72643323
7063,84.55081663,2.899442938,8.366981103
7064,82.88226826,2.842068491,8.44154165
7065,41.1292043,7.570186687,5.389094232
7066,99.05218059,12.84428322,1.231351022
7067,97.40097994,12.65317193,1.630817506
7068,48.0036393,1.431590714,7.303452687
7069,49.03247277,3.251003976,6.7252191
7070,48.00404472,2.705157484,8.567328986
7071,91.79936797,3.008453439,8.28068641
7072,93.38511053,2.585154695,8.630970129
7073,73.68835105,7.117359513,1.509121272
7074,75.8675343,7.175030628,1.316605614
7075,0.972707071,7.184326838,8.748039083
7076,0.972707071,8.59805617,8.750904586
7077,2.659753481,7.250740868,8.33521074
7078,1.68704641,7.238996092,7.083249823
7079,30.76386673,14.29411,8.733200347
7080,30.31780374,15.17465378,7.161182713
7081,87.9605664,7.064431594,1.34940938
7082,43.56440801,2.938851226,8.327249618
7083,41.80353251,3.008979694,8.426296433
7084,32.11434243,18.54689956,2.726667211
7085,69.05513139,9.340624021,1.535704469
7086,15.00472032,12.03941711,8.387924057
7087,16.97949922,12.08975481,8.465443523
7088,41.71099055,2.942970459,1.67284291
7089,43.46619687,3.00191612,1.572039509
7090,19.11151124,1.27348226,8.72643323
7091,17.66842595,1.27348226,8.748705946
7092,17.80989761,1.550060584,6.981334802
7093,51.71794398,12.25735133,8.04742346
7094,48.49197286,8.655715003,8.704893182
7095,13.33376169,4.00019044,1.455807036
7096,49.94742812,11.86371272,1.451914524
7097,84.89528536,8.633435408,4.951636498
7098,37.80062214,7.373066727,5.044493746
7099,47.0256935,8.648972523,8.704893182
7100,34.12419973,11.63559745,5.135172918
7101,44.6530967,8.305385706,2.637561655
7102,11.75766784,18.75083136,1.26323509
7103,38.94633721,6.922333957,7.072856663
7104,91.19354961,11.94489961,8.70478798
7105,34.51689139,18.49981861,7.226251841
7106,32.62577344,18.42297478,7.154415596
7107,80.81169919,18.60322653,5.791275583
7108,81.51928354,18.21824056,4.281759437
7109,81.52911435,16.81855018,5.38206905
7110,80.82153001,17.20353615,6.891585196
7111,2.801759059,16.22227898,8.41951353
7112,3.055673376,14.3152494,8.233034943
7113,44.64945636,15.70733072,8.159709322
7114,82.30899451,8.582537531,8.317845598
7115,68.93484717,9.391741452,5.203404705
7116,40.97720312,1.670274004,1.67284291
7117,66.15604454,4.203754539,1.252775925
7118,42.63887726,1.272696455,1.269713028
7119,1.340025243,5.936782406,8.748039083
7120,88.3920755,13.45355771,8.672921578
7121,89.92398867,12.67305162,7.377709558
7122,22.78932314,2.868754501,8.404331573
7123,21.18385587,2.756384845,8.519622625
7124,77.10750509,6.657770715,4.805234811
7125,37.63699455,18.32362708,7.05101987
7126,35.98747962,18.49981861,7.226251841
7127,39.70297663,1.274091176,1.265067507
7128,7.424597304,1.56612979,4.053614917
7129,78.42280473,7.300284785,5.245498088
7130,40.72599399,5.008020097,7.023582573
7131,40.82660136,5.819733868,8.59728614
7132,42.2823597,6.615817127,7.343852162
7133,42.64096831,1.272696455,8.753794573
7134,44.30120882,1.666154771,8.327249618
7135,65.26370582,2.715973922,8.566069855
7136,66.86060739,18.34185197,2.854439989
7137,82.09816311,16.7557303,3.244269703
7138,83.03567104,14.23100841,4.069645734
7139,48.43634749,2.848233247,5.338289774
7140,11.11991995,4.406232498,3.955807036
7141,73.75214005,15.69699556,8.125019872
7142,73.3801734,14.3875453,8.714100465
7143,89.1121581,12.28530245,8.672921578
7144,90.45925302,13.21067028,8.70478798
7145,28.71249069,5.147587246,5.40792259
7146,29.80699388,4.429543243,6.116802665
7147,22.71792567,14.23239904,1.453276835
7148,65.38155061,18.63702666,2.636540108
7149,45.03173516,1.666154771,7.073375705
7150,65.26978857,1.434957084,7.292503085
7151,99.05218059,11.39891552,1.242215483
7152,1.298185929,14.17864422,8.756425895
7153,72.01059222,12.33566678,5.898032579
7154,71.906712,14.54842891,5.997959778
7155,45.03206036,2.941055742,8.327249618
7156,66.114799,9.334392968,1.535704469
7157,75,18.72643323,1.27356677
7158,73.16321701,18.62835119,1.82097537
7159,73.89851113,18.62835119,3.09454214
7160,73.89851113,17.35478442,1.82097537
7161,45.57902495,1.274900971,8.746126087
7162,36.77489449,18.74985507,8.72643323
7163,38.24304145,18.74985507,8.752275391
7164,37.64718316,17.07348214,8.32458664
7165,39.10514151,18.32362708,7.076862031
7166,81.61155484,2.90646548,1.619865761
7167,80.1409666,2.626998121,1.33698974
7168,80.86900527,3.909194982,1.33698974
7169,79.13750369,7.198984086,8.488629197
7170,37.54824137,1.514777295,1.515012796
7171,47.91912168,6.906676511,5.019716203
7172,39.7159328,18.73364541,8.752275391
7173,39.12007451,17.05727249,8.32458664
7174,77.19601063,2.899659569,1.621812455
7175,78.66659887,2.619711713,1.33698974
7176,5.905991507,18.84470791,1.27356677
7177,83.78519118,8.17361733,4.107107067
7178,5.032921625,15.47044457,2.019957353
7179,6.531110721,15.97792659,1.594745761
7180,67.57208469,15.8993581,1.580873219
7181,67.63605544,14.43810585,1.321727266
7182,60.32276113,18.66869262,3.831307377
7183,90.60681674,13.00043127,5.423592238
7184,83.09806611,18.60030961,7.326742843
7185,84.5881898,18.38775356,7.437597872
7186,83.86272649,16.98806317,7.311474255
7187,35.16456325,11.90765649,1.385710094
7188,34.51689139,17.22625184,8.499818611
7189,32.62577344,17.14940801,8.427982366
7190,45.65072495,18.62970617,4.221090669
7191,45.6495826,17.28947334,3.052357885
7192,46.82485072,9.819696685,4.822924574
7193,10.80122087,13.09464316,4.8928471
7194,89.70229161,1.279066433,8.72643323
7195,91.1576953,1.279066433,8.750911187
7196,91.80664174,1.719225573,7.031597597
7197,90.3476473,2.998292007,8.28068641
7198,90.35123804,1.719225573,7.007119639
7199,1.298185929,15.67672035,8.711715846
7200,1.757487447,14.46213415,6.944750788
7201,83.0802284,2.897625589,1.619865761
7202,84.60332034,2.677162424,1.396743812
7203,50.34266127,18.36195439,8.372803875
7204,12.06942502,12.37707776,4.750578795
7205,13.65132452,11.53983463,4.800752274
7206,79.11983721,15.72973179,4.264527465
7207,39.35287849,5.822947079,8.59728614
7208,39.58990408,4.287493461,8.426296433
7209,39.34384377,4.564967518,7.306772324
7210,19.71806214,1.483298771,7.246055855
7211,86.02158857,2.897404676,8.366981103
7212,87.47034799,2.611689158,8.675759158
7213,19.80995196,12.22493145,5.25802501
7214,18.45786337,12.90013356,5.965443523
7215,18.36000965,11.28454827,4.894589326
7216,22.79411765,1.595668427,7.130764803
7217,21.18865037,1.483298771,7.246055855
7218,67.7429498,18.33970187,8.33970187
7219,29.28367903,14.29228189,8.733200347
7220,38.94985947,1.29323066,7.461761575
7221,64.65930928,11.82693393,1.430929098
7222,88.68274282,5.09063658,5.886503672
7223,40.33200969,1.736283239,7.178571824
7224,32.86043759,1.646310132,7.080123098
7225,34.55882353,1.487304905,7.235946982
7226,70.53917077,12.84513907,4.750964265
7227,84.55882353,1.613977731,7.093414333
7228,82.89027515,1.556603284,7.16797488
7229,96.30859167,2.691878852,8.540364322
7230,95.70514794,3.701088384,8.630970129
7231,94.80590088,2.568031321,8.630970129
7232,68.47824392,17.0661351,8.33970187
7233,68.47824392,18.33970187,7.0661351
7234,89.47291477,8.556471464,1.632017739
7235,89.24753905,7.899154744,2.981427118
7236,47.98476187,8.460614218,5.506499992
7237,16.14264497,13.53336401,8.453203308
7238,83.08823529,1.612160381,2.893432532
7239,69.11764706,18.72643323,8.72643323
7240,80.14705882,1.332693023,2.61055651
7241,80.88235294,1.332693023,3.83698974
7242,77.94117647,1.332693023,3.83698974
7243,78.67647059,1.332693023,2.61055651
7244,41.06974509,1.736283239,8.426296433
7245,92.60941597,1.289227865,8.750911187
7246,71.61412058,9.334192509,5.073967417
7247,0.972707071,7.159104532,1.237700294
7248,2.626593488,7.352352627,1.628232198
7249,41.66310952,7.882151502,2.949503046
7250,32.12514347,1.646310132,8.353689868
7251,31.38984935,1.646310132,7.080123098
7252,33.82352941,1.27356677,8.72643323
7253,32.86043759,2.919876902,8.353689868
7254,89.32716603,13.37148179,6.172921578
7255,88.7506607,12.17572402,5.246823023
7256,1.50357313,16.36916374,7.131229375
7257,32.9140077,4.665797931,6.843792671
7258,33.87709953,4.293054569,8.490102803
7259,34.55882353,2.760871675,8.509513752
7260,77.20588235,1.612640879,2.895379225
7261,84.61132724,1.391697216,2.670310582
7262,29.19505085,3.934636607,8.616802665
7263,28.82645279,4.434585632,7.251668125
7264,78.60581684,17.32965976,8.291275583
7265,77.19958575,17.4450555,8.718622273
7266,77.91106936,16.28088952,8.718622273
7267,70.30004063,9.93295572,5.414273549
7268,81.61764706,1.612160381,2.893432532
7269,93.94957707,5.930290556,1.850861384
7270,39.70164783,1.274091176,8.752275391
7271,40.33265772,3.010374416,8.426296433
7272,36.02454373,2.763148556,8.509513752
7273,37.47684448,2.569074311,8.709486184
7274,98.52069372,3.617563099,2.876107158
7275,44.20299767,1.729219665,1.572039509
7276,55.76143171,18.35157501,8.347519538
7277,9.553221873,2.838349905,1.56372771
7278,11.13807666,2.725988696,1.455807036
7279,13.66336041,10.04667254,4.953398682
7280,87.47817119,1.328262213,7.402192388
7281,86.74287707,1.328262213,6.175759158
7282,75.72899751,18.71862227,7.445055503
7283,42.73453753,8.491755396,8.465635417
7284,41.55541867,7.09485064,8.59728614
7285,16.14889753,13.5240344,5.270984949
7286,15.01097288,12.0300875,5.205705698
7287,16.98575178,12.08042521,5.283225164
7288,22.55722753,12.23200846,8.451751703
7289,21.30406628,13.02792836,8.735172196
7290,22.04691917,14.22754384,8.735172196
7291,58.79146534,11.79210377,1.424105002
7292,31.38984935,2.919876902,8.353689868
7293,30.88235294,1.27356677,8.72643323
7294,9.548003854,1.56612979,2.833289414
7295,38.13806003,18.48934596,2.783363206
7296,38.87335415,18.48934596,1.509796436
7297,38.14824864,17.23920102,1.509796436
7298,86.02941176,1.613977731,7.093414333
7299,59.58746701,18.66869262,2.604874148
7300,5.900146824,18.84470791,8.733211605
7301,5.454258342,17.16575064,8.336202904
7302,36.02941176,1.487304905,7.235946982
7303,33.82352941,18.72643323,8.72643323
7304,31.89047932,18.42297478,8.427982366
7305,0.972707071,8.598053261,1.242215483
7306,81.49135103,14.85384628,3.251262829
7307,81.46082211,13.78299598,4.825754544
7308,80.65509697,15.36563082,5.138010589
7309,37.48171251,1.29323066,7.435919413
7310,97.14180223,3.942019385,1.603214364
7311,97.00874395,5.600773021,1.46955209
7312,95.40928274,5.789922237,1.46955209
7313,56.65364135,18.40814067,2.862007125
7314,88.94875942,1.328262213,7.402192388
7315,58.11687877,18.66869262,2.604874148
7316,11.13285864,1.453768581,2.72536874
7317,17.51680288,11.90775467,1.429145804
7318,72.2023786,18.57204244,6.072042437
7319,71.83618385,17.20039362,5.393017807
7320,88.00611076,8.555009799,1.632017739
7321,51.46689917,1.274020711,1.27356677
7322,50.42861371,2.690663244,1.770960788
7323,50.43230277,1.416642533,3.044527558
7324,49.69700866,1.416642533,1.770960788
7325,71.76906188,10.88028298,6.05504489
7326,71.37041386,9.1984443,6.769783648
7327,70.54157097,11.38833951,5.257261238
7328,86.08651324,15.77043539,1.791239165
7329,60.23353719,14.98645444,3.142372166
7330,15.42785494,18.17640891,4.326186266
7331,14.73475836,18.62502739,5.841268903
7332,16.20873831,18.62502739,5.837124118
7333,15.46351437,16.8014363,5.159188077
7334,72.17855855,16.13193504,8.572042437
7335,75.72899751,17.4450555,8.718622273
7336,70.46740207,1.78116145,8.536458461
7337,8.080337563,2.833303193,1.56372771
7338,6.605848412,2.582172286,1.342479875
7339,54.73771017,15.66739966,1.393386433
7340,27.7319496,5.152629636,6.54278805
7341,27.53694129,5.602850229,8.63486546
7342,27.72468581,3.936782686,8.616802665
7343,4.366776863,18.84470791,8.711879847
7344,17.81089116,18.53299278,8.235404676
7345,17.07250066,17.27020974,8.235404676
7346,16.37257065,17.15802018,6.572540033
7347,98.4921453,16.39523445,7.176340798
7348,98.51901027,15.0995409,6.118392555
7349,98.51901027,14.83157045,7.328481372
7350,69.99649625,18.57204244,7.298475667
7351,5.970475573,14.31191231,1.340753061
7352,3.67799362,2.6918643,1.483393316
7353,5.176296529,2.545688416,1.342479875
7354,88.36942266,6.988566327,4.466255849
7355,81.49723983,15.78229487,1.781759437
7356,80.7616188,14.38255862,1.364355412
7357,35.91383409,15.74112314,1.784222075
7358,35.17893413,14.34214124,1.385710094
7359,72.27867866,15.85787917,5.408879186
7360,80.7534605,15.87382349,8.356251152
7361,80.07640508,17.32965976,8.291275583
7362,3.855344218,12.50703994,1.584270667
7363,5.261018982,13.06524219,1.340753061
7364,35.9794003,12.2684298,8.318261988
7365,37.69919362,12.1156243,8.683083659
7366,81.62747787,17.32674284,8.600309613
7367,75.86409786,17.3015624,1.424870828
7368,75.86409786,18.57512917,2.698437599
7369,26.35724616,18.37707545,1.626711736
7370,25.63364756,17.11026285,1.626711736
7371,71.20269618,3.05472822,8.536458461
7372,0.9636471412,11.39621593,1.242215483
7373,38.19421398,8.809052747,1.568923222
7374,37.45974978,10.5645487,1.521673138
7375,48.73933884,1.431590714,6.067328986
7376,92.66887957,1.295926829,6.132115355
7377,93.3923843,1.295926829,7.381881316
7378,63.91096237,18.63702666,2.636540108
7379,63.17566825,18.63702666,3.862973337
7380,63.17849764,15.00111214,3.149196262
7381,52.44981948,2.71315048,8.55951825
7382,48.88585027,4.176110905,5.510226366
7383,74.76214741,8.383804053,1.628143242
7384,48.72566982,3.987875689,8.567328986
7385,63.91096237,17.36345989,1.362973337
7386,16.20087715,18.73721695,8.748705946
7387,17.1031,18.53299278,6.984110622
7388,82.2299459,15.81364326,4.381901778
7389,67.59590151,18.34185197,1.580873219
7390,83.03537634,13.04950213,1.469503393
7391,84.67296096,13.14998013,1.503079311
7392,92.61043718,11.09900919,1.442210519
7393,26.48087091,6.824811019,8.730028387
7394,26.84706059,6.056608971,7.364893847
7395,16.56981252,4.676483466,4.713644168
7396,59.58746701,17.39512585,1.331307377
7397,20.46651689,11.87215694,1.429145804
7398,74.81882866,16.16244653,1.600392054
7399,16.15963764,15.91410036,8.453203308
7400,15.4703478,17.36224435,8.337135357
7401,24.96565133,10.91775238,8.428638642
7402,25.40413421,10.30961804,7.012607792
7403,66.17647059,18.72643323,1.27356677
7404,66.86060739,17.0682852,1.580873219
7405,56.65149062,17.15246898,1.588440355
7406,58.11472804,17.41302093,1.331307377
7407,75.7128784,2.881178035,8.404483958
7408,80.72874286,13.56006823,8.356251152
7409,40.65046327,17.28021889,8.545853141
7410,85.29411765,1.613977731,8.366981103
7411,83.77495907,11.57330443,1.607107067
7412,40.63553028,18.54657348,7.298128532
7413,43.46147855,8.012721884,7.212201439
7414,40.94142475,9.602891011,2.975110967
7415,52.45350854,1.439129769,7.28595148
7416,46.09268152,10.03136681,1.380706029
7417,83.81552252,1.285465207,8.72643323
7418,65.38155061,17.36345989,1.362973337
7419,69.99649625,17.29847567,8.572042437
7420,86.75688269,1.283426945,8.72643323
7421,76.47058824,1.612640879,1.621812455
7422,92.75812534,14.38725658,8.70478798
7423,98.38763544,5.276316735,2.742444884
7424,82.19652663,18.53748973,2.736077037
7425,82.93182075,18.53748973,1.462510266
7426,82.19652663,17.26392296,1.462510266
7427,46.52901391,2.706491685,8.567328986
7428,3.733094048,17.3020691,8.41951353
7429,38.87663207,10.10376351,1.315689346
7430,51.33664193,4.02004329,1.462039199
7431,77.93130475,1.28701869,1.27356677
7432,52.08191599,2.737779026,1.462039199
7433,82.35294118,1.612160381,1.619865761
7434,29.41176471,1.605206526,1.605206526
7435,80.87626072,1.294305099,1.27356677
7436,83.81552252,1.285465207,1.27356677
7437,34.31287444,16.08295502,1.453100441
7438,88.18570238,6.818029745,8.76155707
7439,38.87995635,8.739650015,2.884612568
7440,21.33176056,17.18841495,1.559261825
7441,39.17556755,12.09362482,8.683083659
7442,52.08560506,1.463758315,2.735605969
7443,46.52868871,1.431590714,7.313455073
7444,22.05402903,1.273086074,8.72643323
7445,23.52941176,1.595668427,8.404331573
7446,25.46829988,15.41952528,4.126711736
7447,16.15280421,15.35329231,5.275256028
7448,83.77883348,9.02815005,1.607107067
7449,55.91834724,18.40814067,1.588440355
7450,11.76100055,1.604649666,8.403389515
7451,29.94827512,2.657825815,8.616802665
7452,47.74296691,12.46681172,8.447027019
7453,49.16753475,13.10510864,8.711959842
7454,87.5,18.62918331,7.060068464
7455,86.05877803,18.38775356,7.437597872
7456,76.45690372,1.598106518,8.404483958
7457,61.76470588,18.37103098,8.459802483
7458,8.084352596,1.56612979,2.83729448
7459,57.35079044,18.7443283,1.27356677
7460,89.84645469,11.01953178,8.672921578
7461,11.67593437,18.41116406,8.418975147
7462,80.07640508,18.60322653,7.017708812
7463,81.62747787,18.60030961,7.326742843
7464,6.609863445,1.314998883,2.616046645
7465,55.13669226,2.942720899,1.4209129
7466,53.55189725,2.735141087,1.462039199
7467,79.34111096,18.60322653,8.291275583
7468,11.85022005,12.20145425,1.412828217
7469,45.5123783,16.05492603,1.611700779
7470,46.38700011,17.3736027,1.710377056
7471,32.10968952,17.28968904,1.453100441
7472,95.47011725,7.027315946,4.869275835
7473,38.95050751,2.567321836,8.709486184
7474,48.52941176,18.72643323,1.27356677
7475,49.42777531,18.43071103,2.831789003
7476,50.16306943,18.43071103,1.558222232
7477,80.88235294,18.72643323,8.72643323
7478,46.09471661,8.692984934,2.867280916
7479,29.94827512,1.384259044,7.343235895
7480,13.20367936,18.73351235,8.748886315
7481,12.38155697,18.41116406,7.167861462
7482,32.84963655,18.54689956,1.453100441
7483,82.15498103,1.556603284,8.44154165
7484,46.38387798,18.62970617,2.971592203
7485,44.83836519,18.65976717,2.603195976
7486,40.28405922,8.313621265,2.605770771
7487,48.48889615,11.17183421,8.704893182
7488,77.94117647,18.72643323,8.72643323
7489,78.60581684,18.60322653,7.017708812
7490,1.082531755,19.09322962,7.235883035
7491,1.50357313,17.55059081,7.530396565
7492,41.08449106,8.372929638,1.290081425
7493,40.36280629,10.09366915,1.315689346
7494,47.12695946,18.62970617,1.710377056
7495,91.11156811,9.402845359,8.753128366
7496,40.33860862,7.123475562,1.290081425
7497,39.61692385,8.844215071,1.315689346
7498,55.87628241,1.671338127,1.4209129
7499,98.38763544,6.052754324,1.46955209
7500,45.57578271,18.74389653,1.261215147
7501,44.84148732,17.4036637,1.341980829
7502,13.97318444,18.62502739,7.086021672
7503,13.23832231,18.67112253,5.753706255
7504,12.4439282,17.08228659,5.423795087
7505,14.03555567,17.29614992,5.341955297
7506,12.5222722,18.67112253,4.503877949
7507,10.28546171,1.272220115,1.269561704
7508,8.819646714,1.56612979,1.56372771
7509,25.00828414,6.825593745,8.730028387
7510,28.14376273,6.210088836,5.232788425
7511,20.58733487,18.43889832,1.559261825
7512,97.21252925,16.16892386,8.464624953
7513,97.23939422,14.60525986,8.616765526
7514,54.40746867,1.271382772,1.27356677
7515,89.65250638,6.81949141,8.76155707
7516,42.471172,8.408824406,1.659421621
7517,41.81380647,7.11955466,1.290081425
7518,35.99766822,17.24967368,8.499818611
7519,1.082531755,0.9068021921,7.235394086
7520,1.49379296,2.439545348,7.546088017
7521,47.86225358,18.62970617,2.983943827
7522,0.938075187,19.09322962,8.228259005
7523,2.441648317,18.45736119,7.536889499
7524,11.79046862,18.67112253,3.274381644
7525,13.99989624,18.67112253,4.508953486
7526,86.78005372,15.96746937,8.711164642
7527,14.73815007,18.62502739,8.337135357
7528,43.89241968,8.746770863,1.380706029
7529,43.38254597,7.204842407,1.256855625
7530,7.348926143,1.267173403,1.27356677
7531,96.44251227,1.41977436,7.252662205
7532,94.93982148,1.295926829,7.343268012
7533,3.576796682,1.461174767,2.775162578
7534,5.075099591,1.314998883,2.634249136
7535,79.17802734,13.44130287,8.677102126
7536,99.06940925,18.98291698,7.203027597
7537,97.56155455,18.4834319,7.574953218
7538,99.06940925,19.09322962,8.221211301
7539,98.4921453,17.57666152,7.575507988
7540,86.76274395,18.73599621,8.72643323
7541,88.23529412,18.62918331,8.333635235
7542,87.49803807,17.36517953,8.333635235
7543,0.938075187,0.9068021921,8.227770056
7544,2.431868147,1.532743155,7.5530699
7545,86.0568161,17.12374978,8.711164642
7546,83.09806611,17.32674284,8.600309613
7547,84.5881898,17.11418679,8.711164642
7548,38.17820246,13.50752018,8.707312222
7549,36.70182854,13.52951965,8.707312222
7550,56.64900695,8.105271268,8.333454166
7551,57.29653688,6.796072381,8.729430557
7552,15.50094714,18.62502739,7.085841303
7553,78.44203616,12.28943474,8.677102126
7554,43.34880997,7.167194051,8.746566022
7555,44.09341079,8.437627615,8.746566022
7556,77.19958575,18.71862227,7.445055503
7557,46.29303322,7.598328706,1.486574886
7558,44.85141332,7.210729478,1.256855625
7559,36.72421719,15.94864206,8.707312222
7560,58.08790599,8.112898561,8.749950078
7561,88.94516868,2.607328646,8.675759158
7562,89.67548375,4.236952854,8.76155707
7563,35.2521855,18.49981861,8.499818611
7564,20.45335625,1.483298771,8.519622625
7565,38.93450576,7.549504312,1.568923222
7566,97.97856644,1.07260293,0.8826155914
7567,96.77944697,1.07260293,1.288077957
7568,97.58263385,1.536857831,2.485829955
7569,97.43732002,2.609460761,1.603214364
7570,3.187343528,18.96166219,8.711879847
7571,1.98816277,18.96166219,9.117375969
7572,2.553660713,17.41902337,8.41951353
7573,63.2675068,4.298244248,8.762858477
7574,53.18880266,1.439129769,8.55951825
7575,1.050087583,18.05489181,9.110883035
7576,1.050087583,16.87346474,8.711715846
7577,41.37326567,18.54657348,8.545853141
7578,36.75983785,1.275843651,8.72643323
7579,35.29411765,1.487304905,8.509513752
7580,85.32348392,18.38775356,8.711164642
7581,99.06940925,1.017083019,7.203027597
7582,97.65613947,1.41977436,7.650692588
7583,99.06940925,0.9068021921,8.220722352
7584,98.58673022,2.326576552,7.650758409
7585,52.82089918,1.463758315,1.462039199
7586,98.9166263,3.153308199,1.272892794
7587,98.9166263,1.970872911,0.8875420206
7588,98.52069372,2.435127812,2.490756384
7589,83.82352941,18.72643323,8.72643323
7590,11.87508973,1.453768581,1.455807036
7591,47.2687506,1.431590714,8.567328986
7592,0.9300886845,0.9820732072,2.805302472
7593,0.9300886845,0.8982699808,1.778027184
7594,1.435089947,2.359444747,2.370935337
7595,2.365178632,1.461174767,2.373878479
7596,98.94991242,16.87346474,8.711715846
7597,98.94991242,18.05489181,9.110883035
7598,97.44205772,17.44509409,8.464624953
7599,98.01932167,18.96166219,9.110328266
7600,96.80569447,18.96166219,8.712297882
7601,64.53449445,1.434957084,8.566069855
7602,99.06194014,0.8982699808,1.770157612
7603,98.62110851,4.485866822,1.272892794
7604,70.73179036,18.57204244,8.572042437
7605,96.81273309,18.96166219,1.288077957
7606,98.01185255,18.96166219,0.8826155914
7607,97.63874312,18.52097777,2.38684628
7608,97.5267154,17.48263996,1.504230689
7609,2.021448886,1.07260293,9.117375969
7610,3.220629644,1.07260293,8.711879847
7611,2.577166658,2.605346086,8.43569393
7612,71.03635169,8.751680529,8.55504489
7613,76.59939198,18.57512917,1.424870828
7614,1.083373699,3.160959443,8.709271101
7615,1.083373699,1.979405122,9.110394086
7616,98.9166263,1.979405122,9.110394086
7617,98.9166263,3.160959443,8.709271101
7618,97.50335652,2.49237729,8.540364322
7619,96.77240835,1.07260293,8.712297882
7620,97.98603555,1.07260293,9.110328266
7621,45.36128703,8.752657934,1.380706029
7622,98.94991242,18.06339221,0.8875420206
7623,98.94991242,16.88095692,1.272892794
7624,98.57680298,17.62270779,2.39177271
7625,17.64124465,1.430737031,1.429482315
7626,29.212981,1.384259044,8.616802665
7627,3.225080433,1.07260293,1.291769262
7628,2.013462383,1.07260293,0.8904851631
7629,2.518463646,2.533777697,1.483393316
7630,98.51901027,14.06262504,8.616765526
7631,2.169002414,18.74574602,2.266042565
7632,2.709501965,18.74574602,1.375557402
7633,1.083373699,1.970872911,0.8875420206
7634,1.083373699,3.153308199,1.272892794
7635,1.980176268,18.96166219,0.8904851631
7636,2.289001313,17.70740821,1.375557402
7637,82.36277199,18.60030961,8.600309613
7638,98.72038395,15.59729451,8.711715846
7639,85.34662135,1.391697216,1.396743812
7640,95.57764351,1.272104492,8.712297882
7641,4.384610407,1.230689533,1.291769262
7642,99.06194014,19.01792679,2.7974329
7643,99.06194014,0.9820732072,2.7974329
7644,64.64625649,18.63702666,1.362973337
7645,99.06194014,19.10173002,1.770157612
7646,1.23891373,17.84747604,2.263099422
7647,1.23891373,17.31717459,1.375557402
7648,0.9300886845,19.10173002,1.778027184
7649,0.9300886845,19.01792679,2.805302472
7650,1.050087583,18.06339221,0.8875420206
7651,44.11085843,18.65976717,1.341980829
7652,58.85217289,18.66869262,1.331307377
7653,79.41176471,1.332693023,1.33698974
7654,88.21346531,1.328262213,8.675759158
7655,94.14286296,1.295926829,8.630970129
7656,76.46429163,18.71862227,8.718622273
7657,38.21700663,1.29323066,8.709486184
7658,5.874569327,1.314998883,1.342479875
7659,70.30713804,7.469106676,8.55504489
7660,31.3033903,14.25901742,6.244259541
7661,14.9573553,8.843874862,6.772765431
7662,72.98153446,11.12749324,6.928839223
7663,11.79438365,17.42195389,2.00481994
7664,63.17566825,17.00805764,4.82277582
7665,71.66745452,11.72625645,7.269145355
7666,80.89814555,5.134063864,2.711790916
7667,77.92749196,2.930799541,4.741473698
*ELEMENT, TYPE=C3D10, ELSET=EALL
1993,2658,3701,3672,3830,3914,3915,3916,3917,3919,3918
1994,2658,3672,2656,3830,3916,3920,3376,3917,3918,3921
1995,1615,3732,3675,3747,3922,3923,3924,3925,3927,3926
1996,2658,2656,3672,3701,3376,3920,3916,3914,3928,3915
1997,3633,3656,1607,3759,3929,3930,3931,3932,3934,3933
1998,484,3648,483,3839,3935,3936,563,3937,3939,3938
1999,2743,1108,1120,3652,3940,1367,3941,3942,3944,3943
2000,1120,2742,2743,3652,3945,3027,3941,3943,3946,3942
2001,483,3648,2592,3839,3936,3947,3948,3938,3939,3949
2002,1617,3675,1615,3732,3950,3924,2250,3951,3923,3922
2003,2729,2661,3668,3894,3393,3952,3953,3954,3956,3955
2004,2664,3690,3705,3909,3957,3958,3959,3960,3962,3961
2005,2701,2729,2661,3668,3403,3393,3401,3963,3953,3952
2006,1084,1141,2604,3653,1373,3964,3965,3966,3968,3967
2007,2604,1141,2761,3653,3964,3969,3033,3967,3968,3970
2008,1607,3656,3633,3893,3930,3929,3931,3971,3973,3972
2009,2729,3668,3879,3894,3953,3974,3975,3954,3955,3976
2010,2664,3705,3690,3740,3959,3958,3957,3977,3979,3978
2011,605,3662,3687,3708,3980,3981,3982,3983,3985,3984
2012,1118,3769,3679,3838,3986,3987,3988,3989,3991,3990
2013,2661,3668,3894,3909,3952,3955,3956,3992,3994,3993
2014,3634,3679,2804,3769,3995,3996,3997,3998,3987,3999
2015,2677,2699,3632,3680,3478,4000,4001,4002,4004,4003
2016,1615,3675,1617,3747,3924,3950,2250,3925,3926,4005
2017,2597,2804,3679,3769,3097,3996,4006,4007,3999,3987
2018,3672,3701,3622,3830,3915,4008,4009,3918,3919,4010
2019,605,3687,657,3708,3982,4011,1005,3983,3984,4012
2020,2744,3652,3746,3830,4013,4014,4015,4016,4018,4017
2021,2661,2701,3668,3909,3401,3963,3952,3992,4019,3994
2022,1118,2597,3679,3769,4020,4006,3988,3986,4007,3987
2023,2658,2656,2806,3830,3376,3378,3377,3917,3921,4021
2024,1703,1098,3696,3787,4022,4023,4024,4025,4027,4026
2025,1666,3613,3677,3757,4028,4029,4030,4031,4033,4032
2026,605,1589,3662,3708,4034,4035,3980,3983,4036,3985
2027,1607,3759,3656,3771,3933,3934,3930,4037,4039,4038
2028,1573,476,3648,3762,4040,4041,4042,4043,4045,4044
2029,3690,3894,3668,3909,4046,3955,4047,3962,3993,3994
2030,2803,2744,3746,3830,3600,4015,4048,4049,4016,4017
2031,2628,3692,3656,3702,4050,4051,4052,4053,4055,4054
2032,3666,3766,1751,3817,4056,4057,4058,4059,4061,4060
2033,2677,3680,3632,3689,4002,4003,4001,4062,4064,4063
2034,476,485,3648,3762,578,4065,4041,4045,4066,4044
2035,1137,1591,3655,3781,4067,4068,4069,4070,4072,4071
2036,2628,3656,3692,3797,4052,4051,4050,4073,4075,4074
2037,2742,3652,1120,3753,3946,3943,3945,4076,4078,4077
2038,2665,3705,3671,3909,4079,4080,4081,4082,3961,4083
2039,1616,3620,1618,3675,4084,4085,2256,4086,4088,4087
2040,1118,3679,1164,3838,3988,4089,1512,3989,3990,4090
2041,3645,3696,1098,3787,4091,4023,4092,4093,4026,4027
2042,3625,3879,3668,3894,4094,3974,4095,4096,3976,3955
2043,2700,3638,3697,3805,4097,4098,4099,4100,4102,4101
2044,2661,3894,3690,3909,3956,4046,4103,3992,3993,3962
2045,2785,3636,3725,3760,4104,4105,4106,4107,4109,4108
2046,2700,3805,3697,3844,4100,4101,4099,4110,4112,4111
2047,1751,3766,3666,3858,4057,4056,4058,4113,4115,4114
2048,3684,3719,3651,3868,4116,4117,4118,4119,4121,4120
2049,2664,2663,3690,3909,3404,4122,3957,3960,4123,3962
2050,2658,3622,3701,3830,4124,4008,3914,3917,4010,3919
2051,1618,3675,3620,3765,4087,4088,4085,4125,4127,4126
2052,2726,634,3723,3796,4128,4129,4130,4131,4133,4132
2053,3615,1655,3684,3722,4134,4135,4136,4137,4139,4138
2054,3638,3671,2730,3705,4140,4141,4142,4143,4080,4144
2055,3651,3723,634,3796,4145,4129,4146,4147,4132,4133
2056,2667,3638,2730,3705,4148,4142,3422,4149,4143,4144
2057,1703,3696,3645,3787,4024,4091,4150,4025,4026,4093
2058,3679,3769,3634,3838,3987,3998,3995,3990,3991,4151
2059,1616,3620,3675,3732,4084,4088,4086,4152,4153,3923
2060,2604,1084,3653,3753,3965,3966,3967,4154,4156,4155
2061,1655,3722,3615,3847,4139,4137,4134,4157,4159,4158
2062,2726,3723,3651,3796,4130,4145,4160,4131,4132,4147
2063,2730,3638,2667,3805,4142,4148,3422,4161,4102,4162
2064,3627,3705,3690,3909,4163,3958,4164,4165,3961,3962
2065,2744,3716,3652,3830,4166,4167,4013,4016,4168,4018
2066,1739,645,3666,3720,4169,4170,4171,4172,4174,4173
2067,3622,3674,1639,3710,4175,4176,4177,4178,4180,4179
2068,1682,3688,3738,3756,4181,4182,4183,4184,4186,4185
2069,3675,3732,3658,3747,3923,4187,4188,3926,3927,4189
2070,1591,1137,3655,3731,4067,4069,4068,4190,4192,4191
2071,3627,3690,3705,3740,4164,3958,4163,4193,3978,3979
2072,1639,1787,3674,3850,2359,4194,4176,4195,4197,4196
2073,1739,645,598,3666,4169,750,4198,4171,4170,4199
2074,1150,1160,1098,3645,1501,1500,1497,4200,4201,4092
2075,1615,3732,3747,3815,3922,3927,3925,4202,4204,4203
2076,1573,3648,476,3789,4042,4041,4040,4205,4207,4206
2077,2593,3647,368,3749,4208,4209,4210,4211,4213,4212
2078,1639,3674,3622,3850,4176,4175,4177,4195,4196,4214
2079,665,3688,616,3756,4215,4216,1052,4217,4186,4218
2080,3668,3690,3625,3894,4047,4219,4095,3955,4046,4096
2081,3636,3760,2785,3797,4109,4107,4104,4220,4222,4221
2082,2644,3618,2643,3698,4223,4224,3308,4225,4227,4226
2083,2640,3667,3613,3698,4228,4229,4230,4231,4233,4232
2084,3638,3697,3805,3844,4098,4101,4102,4234,4111,4112
2085,3671,3705,3627,3909,4080,4163,4235,4083,3961,4165
2086,1581,1739,598,3666,1884,4198,4236,4237,4171,4199
2087,2773,3734,3702,3758,4238,4239,4240,4241,4243,4242
2088,2592,3648,483,3810,3947,3936,3948,4244,4246,4245
2089,1098,3645,1160,3696,4092,4201,1500,4023,4091,4247
2090,2735,2665,3671,3909,3412,4081,4248,4249,4082,4083
2091,1137,1720,1591,3781,4250,2002,4067,4070,4251,4072
2092,2730,3671,3638,3805,4141,4140,4142,4161,4252,4102
2093,1639,3710,3674,3795,4179,4180,4176,4253,4255,4254
2094,2700,3697,2669,3844,4099,4256,3431,4110,4111,4257
2095,1793,3645,1703,3696,4258,4150,2100,4259,4091,4024
2096,616,3688,1713,3756,4216,4260,4261,4218,4186,4262
2097,2730,2735,2665,3671,3089,3412,3421,4141,4248,4081
2098,3613,3757,1666,3803,4033,4031,4028,4263,4265,4264
2099,2665,2730,3671,3705,3421,4141,4081,4079,4144,4080
2100,1787,3790,3674,3850,4266,4267,4194,4197,4268,4196
2101,1593,1080,3729,3865,4269,4270,4271,4272,4274,4273
2102,3651,3719,3684,3856,4117,4116,4118,4275,4277,4276
2103,1593,3729,3654,3865,4271,4278,4279,4272,4273,4280
2104,2593,368,3647,3785,4210,4209,4208,4281,4283,4282
2105,1579,595,3660,3834,4284,4285,4286,4287,4289,4288
2106,1143,3725,3694,3760,4290,4291,4292,4293,4108,4294
2107,1720,1137,1119,3781,4250,1264,4295,4251,4070,4296
2108,1579,620,595,3834,4297,732,4284,4287,4298,4289
2109,3668,3688,665,3756,4299,4215,4300,4301,4186,4217
2110,2678,3680,3621,3872,4302,4303,4304,4305,4307,4306
2111,2699,3632,3680,3714,4000,4003,4004,4308,4310,4309
2112,1090,2723,3725,3760,4311,4312,4313,4314,4315,4108
2113,2761,3653,1141,3706,3970,3968,3969,4316,4318,4317
2114,620,1579,1702,3834,4297,1866,4319,4298,4287,4320
2115,2592,3648,3780,3839,3947,4321,4322,3949,3939,4323
2116,2678,3621,3680,3689,4304,4303,4302,4324,4325,4064
2117,2700,2730,2667,3805,3432,3422,3430,4100,4161,4162
2118,1160,3645,1150,3828,4201,4200,1501,4326,4328,4327
2119,2640,3613,3667,3751,4230,4229,4228,4329,4331,4330
2120,2700,2667,3638,3805,3430,4148,4097,4100,4162,4102
2121,2729,3668,2733,3683,3953,4332,3084,4333,4335,4334
2122,1108,3652,2743,3716,3944,3942,3940,4336,4167,4337
2123,2677,2679,2699,3680,3476,3479,3478,4002,4338,4004
2124,3668,3738,3688,3756,4339,4182,4299,4301,4185,4186
2125,627,2733,3668,3683,4340,4332,4341,4342,4334,4335
2126,1607,3656,1611,3771,3930,4343,2213,4037,4038,4344
2127,2644,3693,3618,3698,4345,4346,4223,4225,4347,4227
2128,1160,3696,3645,3828,4247,4091,4201,4326,4348,4328
2129,1610,1612,1613,3611,2218,2227,2226,4349,4351,4350
2130,2628,3692,2630,3797,4050,4352,3232,4073,4074,4353
2131,1793,1791,1703,3645,2539,2179,2100,4258,4354,4150
2132,2773,2625,3702,3734,3228,4355,4240,4238,4356,4239
2133,485,3648,3762,3810,4065,4044,4066,4357,4246,4358
2134,1666,3677,1779,3757,4030,4359,2495,4031,4032,4360
2135,1653,3684,3722,3727,4361,4138,4362,4363,4365,4364
2136,1610,3611,1613,3709,4349,4350,2226,4366,4368,4367
2137,1779,3757,3677,3841,4360,4032,4359,4369,4371,4370
2138,1675,1651,1743,3617,2417,2426,2428,4372,4374,4373
2139,3618,3766,3666,3817,4375,4056,4376,4377,4061,4059
2140,1607,3798,3656,3893,4378,4379,3930,3971,4380,3973
2141,1616,1756,1618,3620,2258,2257,2256,4084,4381,4085
2142,1150,3645,1098,3787,4200,4092,1497,4382,4093,4027
2143,2678,3621,3836,3872,4304,4383,4384,4305,4306,4385
2144,1730,3742,636,3848,4386,4387,4388,4389,4391,4390
2145,476,485,484,3648,578,580,577,4041,4065,3935
2146,2678,3836,2724,3872,4384,4392,3484,4305,4385,4393
2147,2628,2626,3692,3702,3231,4394,4050,4053,4395,4055
2148,2631,3758,2629,3876,4396,4397,3238,4398,4400,4399
2149,2628,3702,3656,3728,4053,4054,4052,4401,4403,4402
2150,1653,3684,3727,3873,4361,4365,4363,4404,4406,4405
2151,2792,2768,2788,3619,3530,3511,3138,4407,4409,4408
2152,3650,3742,1730,3848,4410,4386,4411,4412,4391,4389
2153,3618,3649,3666,3766,4413,4414,4376,4375,4415,4056
2154,1634,1636,1635,3623,2343,2342,2338,4416,4418,4417
2155,1657,1655,3615,3801,2443,4134,4419,4420,4422,4421
2156,1730,1696,3650,3848,2146,4423,4411,4389,4424,4412
2157,1637,3674,1787,3790,4425,4194,2358,4426,4267,4266
2158,2618,1090,2723,3725,4427,4311,2976,4428,4313,4312
2159,2628,3728,3656,3797,4401,4402,4052,4073,4429,4075
2160,2816,3640,2817,3793,4430,4431,3568,4432,4434,4433
2161,3634,3769,2804,3882,3998,3999,3997,4435,4437,4436
2162,3618,3677,1625,3817,4438,4439,4440,4377,4442,4441
2163,1769,3619,1773,3867,4443,4444,2119,4445,4447,4446
2164,2656,3672,3701,3779,3920,3915,3928,4448,4450,4449
2165,1618,3765,3620,3800,4125,4126,4085,4451,4453,4452
2166,369,368,3647,3749,448,4209,4454,4455,4212,4213
2167,2672,3665,2671,3697,4456,4457,3443,4458,4460,4459
2168,368,370,369,3647,443,465,448,4209,4461,4454
2169,1784,3622,1639,3710,4462,4177,2368,4463,4178,4179
2170,1090,3725,1143,3760,4313,4290,1455,4314,4108,4293
2171,1659,3621,1661,3813,4464,4465,2462,4466,4468,4467
2172,3658,3747,3732,3815,4189,3927,4187,4469,4203,4204
2173,1616,3675,1617,3732,4086,3950,2251,4152,3923,3951
2174,1610,1612,3611,3798,2218,4351,4349,4470,4472,4471
2175,1770,3629,3748,3857,4473,4474,4475,4476,4478,4477
2176,3662,3708,1589,3883,3985,4036,4035,4479,4481,4480
2177,1642,1710,3625,3795,2373,4482,4483,4484,4486,4485
2178,2817,3640,3713,3793,4431,4487,4488,4433,4434,4489
2179,370,3647,361,3821,4461,4490,464,4491,4493,4492
2180,3612,1643,3704,3738,4494,4495,4496,4497,4499,4498
2181,2670,2672,2671,3697,3444,3443,3439,4500,4458,4459
2182,1703,3645,1791,3787,4150,4354,2179,4025,4093,4501
2183,1775,1774,1750,3626,2174,2513,2515,4502,4504,4503
2184,2643,3618,2644,3840,4224,4223,3308,4505,4507,4506
2185,361,3647,370,3807,4490,4461,464,4508,4510,4509
2186,2626,3633,2624,3692,4511,4512,3222,4394,4514,4513
2187,369,370,361,3821,465,464,461,4515,4491,4492
2188,3623,3681,1635,3804,4516,4517,4417,4518,4520,4519
2189,1612,1613,3611,3791,2227,4350,4351,4521,4523,4522
2190,1752,3720,3666,3817,4524,4173,4525,4526,4527,4059
2191,628,616,1713,3756,780,4261,4528,4529,4218,4262
2192,595,1579,3660,3823,4284,4286,4285,4530,4532,4531
2193,2699,2725,2677,3632,3480,3470,3478,4000,4533,4001
2194,1750,3626,1774,3709,4503,4504,2513,4534,4536,4535
2195,634,2726,2594,3796,4128,2951,4537,4133,4131,4538
2196,484,483,3648,3810,563,3936,3935,4539,4245,4246
2197,2631,3702,2629,3758,4540,4541,3238,4396,4242,4397
2198,634,2594,614,3796,4537,4542,895,4133,4538,4543
2199,3612,3710,1643,3738,4544,4545,4494,4497,4546,4499
2200,1651,3699,3617,3854,4547,4548,4374,4549,4551,4550
2201,3627,3704,3690,3740,4552,4553,4164,4193,4554,3978
2202,1773,3619,1769,3831,4444,4443,2119,4555,4557,4556
2203,1782,1770,1671,3629,2524,2522,2312,4558,4473,4559
2204,1759,3643,1686,3732,4560,4561,2249,4562,4564,4563
2205,1659,1661,3621,3802,2462,4465,4464,4565,4567,4566
2206,2729,3668,3683,3879,3953,4335,4333,3975,3974,4568
2207,1607,1611,3759,3771,2213,4569,3933,4037,4344,4039
2208,2625,3633,2626,3702,4570,4511,3221,4355,4571,4395
2209,2796,3635,2787,3806,4572,4573,3538,4574,4576,4575
2210,1651,3617,1675,3854,4374,4372,2417,4549,4550,4577
2211,1756,3620,1616,3732,4381,4084,2258,4578,4153,4152
2212,1637,1639,1787,3674,2356,2359,2358,4425,4176,4194
2213,476,3648,484,3789,4041,3935,577,4206,4207,4579
2214,2800,2798,3642,3799,3158,4580,4581,4582,4584,4583
2215,1675,3617,1743,3775,4372,4373,2428,4585,4587,4586
2216,1634,3623,1635,3804,4416,4417,2338,4588,4518,4519
2217,1661,3813,3621,3829,4467,4468,4465,4589,4591,4590
2218,3615,3772,2676,3860,4592,4593,4594,4595,4597,4596
2219,1773,3619,3831,3887,4444,4557,4555,4598,4600,4599
2220,2785,3725,2723,3760,4106,4312,3200,4107,4108,4315
2221,3615,1657,3733,3856,4419,4601,4602,4603,4605,4604
2222,1714,628,1713,3756,4606,4528,1914,4607,4529,4262
2223,1625,3618,1626,3767,4440,4608,2294,4609,4611,4610
2224,1730,3650,1696,3742,4411,4423,2146,4386,4410,4612
2225,638,605,1589,3662,807,4034,4613,4614,3980,4035
2226,1739,3666,1752,3720,4171,4525,2090,4172,4173,4524
2227,1651,1743,3617,3722,2426,4373,4374,4615,4617,4616
2228,1780,3614,1667,3735,4618,4619,2331,4620,4622,4621
2229,655,3708,3644,3741,4623,4624,4625,4626,4628,4627
2230,2734,3641,3779,3879,4629,4630,4631,4632,4634,4633
2231,2800,3799,3642,3886,4582,4583,4581,4635,4637,4636
2232,1759,1686,3643,3823,2249,4561,4560,4638,4640,4639
2233,2624,3692,3633,3855,4513,4514,4512,4641,4643,4642
2234,1667,3614,1780,3903,4619,4618,2331,4644,4646,4645
2235,2625,2624,2626,3633,3182,3222,3221,4570,4512,4511
2236,484,3789,3648,3839,4579,4207,3935,3937,4647,3939
2237,3615,3801,1655,3847,4421,4422,4134,4158,4648,4157
2238,1622,3631,1685,3817,4649,4650,2276,4651,4653,4652
2239,1730,1592,1696,3848,1899,2145,2146,4389,4654,4424
2240,1618,3620,1756,3800,4085,4381,2257,4451,4452,4655
2241,1756,3686,3620,3732,4656,4657,4381,4578,4658,4153
2242,1635,3623,1636,3790,4417,4418,2342,4659,4661,4660
2243,2792,3619,2788,3760,4407,4408,3138,4662,4664,4663
2244,2658,2803,3622,3830,3388,4665,4124,3917,4049,4010
2245,2678,2680,3680,3872,3482,4666,4302,4305,4667,4307
2246,1139,3716,2610,3769,4668,4669,4670,4671,4673,4672
2247,368,370,3647,3785,443,4461,4209,4283,4674,4282
2248,1613,3709,3611,3815,4367,4368,4350,4675,4677,4676
2249,1682,3688,1716,3738,4181,4678,2394,4183,4182,4679
2250,2743,2742,2807,3652,3027,3597,3596,3942,3946,4680
2251,2640,3667,3698,3892,4228,4233,4231,4681,4683,4682
2252,638,1589,1762,3662,4613,1941,4684,4614,4035,4685
2253,1642,3625,1710,3756,4483,4482,2373,4686,4688,4687
2254,2674,3665,3772,3826,4689,4690,4691,4692,4694,4693
2255,369,3647,370,3821,4454,4461,465,4515,4493,4491
2256,1642,1640,1710,3795,2372,2374,2373,4484,4695,4486
2257,1626,1751,3766,3817,2296,4057,4696,4697,4060,4061
2258,3627,3705,3704,3740,4163,4698,4552,4193,3979,4554
2259,628,665,616,3756,1053,1052,780,4529,4217,4218
2260,1642,3738,3625,3756,4699,4700,4483,4686,4185,4688
2261,3647,3807,361,3821,4510,4508,4490,4493,4701,4492
2262,1090,2618,1111,3725,4427,4702,1316,4313,4428,4703
2263,645,675,3666,3720,970,4704,4170,4174,4705,4173
2264,2676,3615,3689,3772,4594,4706,4707,4593,4592,4708
2265,1636,3623,1634,3743,4418,4416,2343,4709,4711,4710
2266,1639,3622,1784,3850,4177,4462,2368,4195,4214,4712
2267,1651,3722,3617,3727,4615,4616,4374,4713,4364,4714
2268,1659,1661,1705,3813,2462,2465,2464,4466,4467,4715
2269,659,3651,634,3796,4716,4146,1044,4717,4147,4133
2270,2768,3619,2792,3745,4409,4407,3530,4718,4720,4719
2271,3641,1683,3743,3795,4721,4722,4723,4724,4726,4725
2272,1750,3626,3709,3815,4503,4536,4534,4727,4728,4677
2273,2803,2658,3622,3746,3388,4124,4665,4048,4730,4729
2274,2788,3619,2768,3797,4408,4409,3511,4731,4733,4732
2275,1647,3616,3699,3899,4734,4735,4736,4737,4739,4738
2276,1653,3684,1655,3722,4361,4135,2433,4362,4138,4139
2277,1782,3629,1671,3767,4558,4559,2312,4740,4742,4741
2278,3677,3757,3642,3841,4032,4743,4744,4370,4371,4745
2279,2773,3734,3758,3822,4238,4243,4241,4746,4748,4747
2280,3751,3806,2752,3895,4749,4750,4751,4752,4754,4753
2281,1782,1770,3629,3748,2524,4473,4558,4755,4475,4474
2282,2674,3772,3665,3860,4691,4690,4689,4756,4597,4757
2283,1108,1159,1120,3652,1542,1541,1367,3944,4758,3943
2284,1666,3677,3613,3750,4030,4029,4028,4759,4761,4760
2285,1774,3626,1775,3752,4504,4502,2174,4762,4764,4763
2286,1709,1655,3801,3847,2445,4422,4765,4766,4157,4648
2287,3618,2643,3698,3774,4224,4226,4227,4767,4769,4768
2288,3618,1625,3677,3767,4440,4439,4438,4611,4609,4770
2289,1784,3622,3710,3812,4462,4178,4463,4771,4773,4772
2290,1716,3738,3688,3897,4679,4182,4678,4774,4776,4775
2291,1750,1775,3626,3747,2515,4502,4503,4777,4779,4778
2292,2725,2677,3632,3772,3470,4001,4533,4780,4782,4781
2293,1612,3791,3611,3798,4521,4522,4351,4472,4783,4471
2294,3664,3806,3751,3895,4784,4749,4785,4786,4754,4752
2295,1666,3750,3613,3842,4759,4760,4028,4787,4789,4788
2296,1618,3675,3765,3842,4087,4127,4125,4790,4792,4791
2297,2699,2725,3632,3714,3480,4533,4000,4308,4793,4310
2298,484,485,483,3810,580,558,563,4539,4357,4245
2299,2604,2761,2809,3653,3033,3132,3131,3967,3970,4794
2300,2800,3642,2798,3792,4581,4580,3158,4795,4797,4796
2301,3642,3677,3613,3757,4744,4029,4798,4743,4032,4033
2302,2807,3652,2744,3716,4680,4013,3598,4799,4167,4166
2303,1773,1769,1749,3887,2119,2493,2510,4598,4801,4800
2304,2724,3836,3712,3872,4392,4802,4803,4393,4385,4804
2305,3694,3725,3636,3760,4291,4105,4805,4294,4108,4109
2306,1622,1685,3631,3765,2276,4650,4649,4806,4808,4807
2307,659,634,614,3796,1044,895,1045,4717,4133,4543
2308,671,636,3742,3848,1002,4387,4809,4810,4390,4391
2309,1661,3736,3621,3802,4811,4812,4465,4567,4813,4566
2310,3678,3715,1758,3820,4814,4815,4816,4817,4819,4818
2311,3666,3766,3649,3858,4056,4415,4414,4114,4115,4820
2312,1773,3831,1769,3887,4555,4556,2119,4598,4599,4801
2313,2796,2787,2752,3806,3538,3107,3604,4574,4575,4750
2314,2720,2699,3680,3714,3490,4004,4821,4822,4308,4309
2315,671,3742,3650,3848,4809,4410,4823,4810,4391,4412
2316,1657,1709,1655,3801,2446,2445,2443,4420,4765,4422
2317,1635,3681,3623,3790,4517,4516,4417,4659,4824,4661
2318,1769,3831,1749,3887,4556,4825,2493,4801,4599,4800
2319,1605,1607,3633,3893,2202,3931,4826,4827,3971,3972
2320,1647,3699,3616,3768,4736,4735,4734,4828,4830,4829
2321,1154,1141,1084,3653,1427,1373,1428,4831,3968,3966
2322,3641,3743,3674,3795,4723,4832,4833,4724,4725,4254
2323,1651,3617,3699,3727,4374,4548,4547,4713,4714,4834
2324,1661,1705,3813,3829,2465,4715,4467,4589,4835,4591
2325,1643,3612,3704,3896,4494,4496,4495,4836,4838,4837
2326,1647,3704,3616,3899,4839,4840,4734,4737,4841,4739
2327,1617,1616,1618,3675,2251,2256,2255,3950,4086,4087
2328,623,617,1594,3678,792,4842,4843,4844,4846,4845
2329,1593,3654,1794,3865,4279,4847,2151,4272,4280,4848
2330,2624,3633,2625,3734,4512,4570,3182,4849,4850,4356
2331,2671,3697,3628,3844,4459,4851,4852,4853,4111,4854
2332,2678,3621,3689,3836,4304,4325,4324,4384,4383,4855
2333,3672,3779,2654,3870,4450,4856,4857,4858,4860,4859
2334,2711,3776,3648,3810,4861,4862,4863,4864,4865,4246
2335,617,1594,3678,3715,4842,4845,4846,4866,4867,4814
2336,2643,3774,3618,3840,4769,4767,4224,4505,4868,4507
2337,1686,3686,3643,3823,4869,4870,4561,4640,4871,4639
2338,1671,3629,1770,3841,4559,4473,2522,4872,4874,4873
2339,1607,1605,3633,3759,2202,4826,3931,3933,4875,3932
2340,3702,3734,3660,3758,4239,4876,4877,4242,4243,4878
2341,3617,3697,3665,3793,4879,4460,4880,4881,4883,4882
2342,3613,3803,1666,3842,4263,4264,4028,4788,4884,4787
2343,3647,3749,2706,3833,4213,4885,4886,4887,4889,4888
2344,655,3644,691,3741,4625,4890,996,4626,4627,4891
2345,1680,3719,3632,3856,4892,4893,4894,4895,4277,4896
2346,2641,3631,3774,3892,4897,4898,4899,4900,4902,4901
2347,2720,3714,3680,3913,4822,4309,4821,4903,4905,4904
2348,2641,3774,2771,3892,4899,4906,3305,4900,4901,4907
2349,3712,3836,3621,3872,4802,4383,4908,4804,4385,4306
2350,3613,3799,3757,3895,4909,4910,4033,4911,4913,4912
2351,3643,3732,1759,3791,4564,4562,4560,4914,4916,4915
2352,1730,636,604,3848,4388,765,4917,4389,4390,4918
2353,3776,3780,3669,3908,4919,4920,4921,4922,4924,4923
2354,1613,3611,3791,3815,4350,4522,4523,4675,4676,4925
2355,1643,3710,3612,3896,4545,4544,4494,4836,4926,4838
2356,1610,3611,3709,3887,4349,4368,4366,4927,4929,4928
2357,1593,1794,1712,3865,2151,2150,2020,4272,4848,4930
2358,1594,1758,3678,3715,2157,4816,4845,4867,4815,4814
2359,2644,3840,3693,3885,4506,4931,4345,4932,4934,4933
2360,3650,3743,1696,3804,4935,4936,4423,4937,4939,4938
2361,3625,1642,3710,3738,4483,4940,4941,4700,4699,4546
2362,2674,2673,3665,3826,3452,4942,4689,4692,4943,4694
2363,1696,3743,3650,3848,4936,4935,4423,4424,4944,4412
2364,2800,3642,3792,3886,4581,4797,4795,4635,4636,4945
2365,484,3648,485,3810,3935,4065,580,4539,4246,4357
2366,1592,1730,604,3848,1899,4917,4946,4654,4389,4918
2367,2757,1101,1118,3679,4947,1355,4948,4949,4950,3988
2368,1667,3735,3614,3903,4621,4622,4619,4644,4951,4646
2369,2679,3680,2677,3689,4338,4002,3476,4952,4064,4062
2370,1648,1681,3638,3770,2412,4953,4954,4955,4957,4956
2371,1717,623,1594,3678,4958,4843,1926,4959,4844,4845
2372,1163,3716,1139,3769,4960,4668,1442,4961,4673,4671
2373,2671,3697,3665,3826,4459,4460,4457,4962,4963,4694
2374,1647,3616,3704,3768,4734,4840,4839,4828,4829,4964
2375,1791,3764,3645,3829,4965,4966,4354,4967,4969,4968
2376,1118,2597,2757,3679,4020,3015,4948,3988,4006,4949
2377,1675,3617,3775,3854,4372,4587,4585,4577,4550,4970
2378,2725,3632,3714,3796,4533,4310,4793,4971,4973,4972
2379,1774,3682,3626,3752,4974,4975,4504,4762,4976,4764
2380,3647,2706,3785,3855,4886,4977,4282,4978,4980,4979
2381,2706,3647,2593,3749,4886,4208,3074,4885,4213,4211
2382,2641,3631,3698,3774,4897,4981,4982,4899,4898,4768
2383,627,615,2733,3683,874,4983,4340,4342,4984,4334
2384,1713,3688,1682,3756,4260,4181,2564,4262,4186,4184
2385,3647,3692,2706,3855,4985,4986,4886,4978,4643,4980
2386,3623,3674,1636,3790,4987,4988,4418,4661,4267,4660
2387,3622,3674,3790,3850,4175,4267,4989,4214,4196,4268
2388,2625,3633,3702,3734,4570,4571,4355,4356,4850,4239
2389,609,3663,2607,3902,4990,4991,4992,4993,4995,4994
2390,2787,3635,2796,3782,4573,4572,3538,4996,4998,4997
2391,2817,3713,3640,3825,4488,4487,4431,4999,5001,5000
2392,1624,1625,3677,3817,2290,4439,5002,5003,4441,4442
2393,2626,3633,3692,3702,4511,4514,4394,4395,4571,4055
2394,1636,3674,3623,3743,4988,4987,4418,4709,4832,4711
2395,1648,3638,1681,3820,4954,4953,2412,5004,5006,5005
2396,1780,3614,3735,3748,4618,4622,4620,5007,5009,5008
2397,615,2595,2733,3683,5010,2930,4983,4984,5011,4334
2398,3674,3710,3701,3795,4180,5012,5013,4254,4255,5014
2399,2792,3619,3760,3827,4407,4664,4662,5015,5017,5016
2400,1622,3631,3750,3765,4649,5018,5019,4806,4807,5020
2401,1647,3699,3854,3899,4736,4551,5021,4737,4738,5022
2402,654,3717,632,3718,5023,5024,975,5025,5027,5026
2403,1777,3675,3635,3747,5028,5029,5030,5031,3926,5032
2404,1773,3682,3619,3709,5033,5034,4444,5035,5037,5036
2405,2656,2654,3672,3779,3366,4857,3920,4448,4856,4450
2406,2640,3698,2641,3892,4231,4982,3294,4681,4682,4900
2407,2768,3728,3619,3745,5038,5039,4409,4718,5040,4720
2408,1791,3645,3764,3787,4354,4966,4965,4501,4093,5041
2409,3664,2752,3806,3895,5042,4750,4784,4786,4753,4754
2410,1706,3719,1680,3856,5043,4892,2461,5044,4277,4895
2411,1773,3709,3619,3887,5035,5036,4444,4598,4928,4600
2412,3643,3686,1686,3732,4870,4869,4561,4564,4658,4563
2413,1621,3750,1666,3842,5045,4759,2281,5046,4789,4787
2414,654,3717,3718,3742,5023,5027,5025,5047,5049,5048
2415,2739,1139,2610,3769,5050,4670,3021,5051,4671,4672
2416,632,3718,3717,3744,5026,5027,5024,5052,5054,5053
2417,3666,3720,3631,3817,4173,5055,5056,4059,4527,4653
2418,3613,3757,3664,3895,4033,5057,5058,4911,4912,4786
2419,1644,3704,3738,3897,5059,4498,5060,5061,5062,4776
2420,1696,1731,3743,3848,2147,5063,4936,4424,5064,4944
2421,3618,3693,2644,3840,4346,4345,4223,4507,4931,4506
2422,1634,3743,3623,3804,4710,4711,4416,4588,4939,4518
2423,3684,1694,3868,3873,5065,5066,4119,4406,5068,5067
2424,2662,3740,3612,3869,5069,5070,5071,5072,5074,5073
2425,3666,3720,675,3739,4173,4705,4704,5075,5077,5076
2426,2610,3716,2791,3769,4669,5078,3160,4672,4673,5079
2427,1680,3632,3719,3852,4894,4893,4892,5080,5082,5081
2428,1687,3759,3647,3807,5083,5084,5085,5086,5087,4510
2429,1758,3820,3715,3873,4818,4819,4815,5088,5090,5089
2430,3626,3682,1774,3709,4975,4974,4504,4536,5037,4535
2431,2634,3778,3658,3835,5091,5092,5093,5094,5096,5095
2432,3613,3751,2640,3895,4331,4329,4230,4911,4752,5097
2433,3694,3725,1143,3816,4291,4290,4292,5098,5100,5099
2434,1610,3798,3611,3887,4470,4471,4349,4927,5101,4929
2435,2674,2676,3772,3860,3463,4593,4691,4756,4596,4597
2436,1626,3766,3618,3817,4696,4375,4608,4697,4061,4377
2437,1116,1080,1593,3865,1282,4269,5102,5103,4274,4272
2438,1593,1712,1116,3865,2020,5104,5102,4272,4930,5103
2439,603,3708,655,3741,5105,4623,993,5106,4628,4626
2440,3622,3701,3674,3710,4008,5013,4175,4178,5012,4180
2441,1613,3791,1614,3815,4523,5107,2236,4675,4925,5108
2442,3669,3776,3648,3780,4921,4862,5109,4920,4919,4321
2443,1623,1624,1625,3677,2284,2290,2289,5110,5002,4439
2444,3655,3716,1163,3769,5111,4960,5112,5113,4673,4961
2445,1614,3791,3732,3815,5107,4916,5114,5108,4925,4204
2446,3642,3757,3664,3818,4743,5057,5115,5116,5118,5117
2447,1769,3831,3619,3867,4556,4557,4443,4445,5119,4447
2448,2720,3888,3714,3913,5120,5121,4822,4903,5122,4905
2449,2592,3648,2717,3780,3947,5123,3065,4322,4321,5124
2450,3628,3715,3820,3873,5125,4819,5126,5127,5089,5090
2451,2662,3690,3612,3740,5128,5129,5071,5069,3978,5070
2452,3622,3812,1784,3850,4773,4771,4462,4214,5130,4712
2453,2739,1087,1139,3769,5131,1361,5050,5051,5132,4671
2454,1167,3726,1093,3757,5133,5134,1472,5135,5137,5136
2455,3628,3826,2671,3844,5138,4962,4852,4854,5139,4853
2456,3672,3681,3870,3882,5140,5141,4858,5142,5144,5143
2457,3651,3684,3868,3873,4118,4119,4120,5145,4406,5067
2458,2618,2723,2785,3725,2976,3200,3199,4428,4312,4106
2459,2624,3633,3707,3855,4512,5146,5147,4641,4642,5148
2460,1624,3677,1623,3817,5002,5110,2284,5003,4442,5149
2461,3660,3758,3734,3822,4878,4243,4876,5150,4747,4748
2462,3612,3746,2662,3869,5151,5152,5071,5073,5153,5072
2463,1616,1617,1615,3732,2251,2250,2245,4152,3951,3922
2464,3665,3722,3684,3727,5154,4138,5155,5156,4364,4365
2465,3619,3682,1773,3867,5034,5033,4444,4447,5157,4446
2466,1167,3664,3726,3757,5158,5159,5133,5135,5057,5137
2467,1793,1791,3645,3829,2539,4354,4258,5160,4967,4968
2468,2800,2766,3799,3886,3540,5161,4582,4635,5162,4637
2469,3612,3690,2662,3746,5129,5128,5071,5151,5163,5152
2470,2803,3746,3622,3830,4048,4729,4665,4049,4017,4010
2471,2640,3698,3613,3895,4231,4232,4230,5097,5164,4911
2472,2646,3840,2644,3885,5165,4506,3318,5166,4934,4932
2473,3638,3768,1648,3770,5167,5168,4954,4956,5169,4955
2474,2620,3707,601,3761,5170,5171,5172,5173,5175,5174
2475,1659,3621,3733,3802,4464,5176,5177,4565,4566,5178
2476,603,1600,3708,3741,5179,5180,5105,5106,5181,4628
2477,627,3668,666,3683,4341,5182,1049,4342,4335,5183
2478,638,3662,1762,3852,4614,4685,4684,5184,5186,5185
2479,1687,3807,3647,3821,5086,4510,5085,5187,4701,4493
2480,3627,3738,3704,3897,5188,4498,4552,5189,4776,5062
2481,3686,3823,672,3824,4871,5190,5191,5192,5194,5193
2482,3629,3695,1770,3841,5195,5196,4473,4874,5197,4873
2483,1750,3747,3626,3815,4777,4778,4503,4727,4203,4728
2484,1622,1685,1752,3817,2276,2288,2287,4651,4652,4526
2485,1739,1581,1752,3666,1884,2091,2090,4171,4237,4525
2486,3653,3740,2809,3869,5198,5199,4794,5200,5074,5201
2487,3618,3766,1626,3767,4375,4696,4608,4611,5202,4610
2488,2695,2816,2817,3793,3566,3568,3565,5203,4432,4433
2489,3635,3751,3664,3806,5204,4785,5205,4576,4749,4784
2490,1777,3747,3635,3891,5031,5032,5030,5206,5208,5207
2491,3636,3797,2785,3833,4220,4221,4104,5209,5211,5210
2492,1783,3735,3661,3748,5212,5213,5214,5215,5008,5216
2493,1692,1573,3648,3762,2046,4042,5217,5218,4043,4044
2494,1607,1609,1611,3656,2211,2214,2213,3930,5219,4343
2495,676,673,3721,3800,1028,5220,5221,5222,5224,5223
2496,3611,3791,3732,3876,4522,4916,5225,5226,5228,5227
2497,600,676,3720,3800,977,5229,5230,5231,5222,5232
2498,3652,3622,3746,3830,5233,4729,4014,4018,4010,4017
2499,2671,3628,3697,3826,4852,4851,4459,4962,5138,4963
2500,3635,3675,1777,3803,5029,5028,5030,5234,5236,5235
2501,1609,3656,1607,3798,5219,3930,2211,5237,4379,4378
2502,482,3644,495,3783,5238,5239,566,5240,5242,5241
2503,1696,3743,1731,3804,4936,5063,2147,4938,4939,5243
2504,3620,3686,1756,3800,4657,4656,4381,4452,5244,4655
2505,3650,3862,3819,3904,5245,5246,5247,5248,5250,5249
2506,2804,3679,3634,3763,3996,3995,3997,5251,5253,5252
2507,2791,3769,3716,3830,5079,4673,5078,5254,5255,4168
2508,2792,3745,3619,3827,4719,4720,4407,5015,5256,5017
2509,1681,3638,3770,3820,4953,4956,4957,5005,5006,5257
2510,1794,3854,1796,3865,5258,5259,2544,4848,5261,5260
2511,2624,3707,3633,3734,5147,5146,4512,4849,5262,4850
2512,1780,3614,3748,3903,4618,5009,5007,4645,4646,5263
2513,2711,3648,2592,3810,4863,3947,3067,4864,4246,4244
2514,3647,3759,1687,3771,5084,5083,5085,5264,4039,5265
2515,2658,3701,3622,3746,3914,4008,4124,4730,5266,4729
2516,1673,3704,1647,3899,5267,4839,2398,5268,4841,4737
2517,3699,3768,1648,3820,4830,5168,5269,5270,5271,5004
2518,2711,2717,3648,3776,3066,5123,4863,4861,5272,4862
2519,3643,3778,2778,3824,5273,5274,5275,5276,5278,5277
2520,3763,3870,3681,3882,5279,5141,5280,5281,5143,5144
2521,2717,3780,3776,3908,5124,4919,5272,5282,4924,4922
2522,3641,2734,3866,3879,4629,5283,5284,4634,4632,5285
2523,1769,3694,3831,3867,5286,5287,4556,4445,5288,5119
2524,3663,3720,676,3800,5289,5229,5290,5291,5232,5222
2525,645,675,598,3666,970,969,750,4170,4704,4199
2526,3618,3666,3649,3774,4376,4414,4413,4767,5293,5292
2527,3627,3688,3668,3738,5294,4299,5295,5188,4182,4339
2528,2715,3819,3862,3904,5296,5246,5297,5298,5249,5250
2529,1776,1666,3803,3842,2283,4264,5299,5300,4787,4884
2530,1657,3615,3733,3801,4419,4602,4601,4420,4421,5301
2531,609,2772,639,3902,5302,5303,841,4993,5305,5304
2532,1636,1638,3674,3743,2352,5306,4988,4709,5307,4832
2533,2595,3683,615,3866,5011,4984,5010,5308,5310,5309
2534,1680,3802,3632,3852,5311,5312,4894,5080,5313,5082
2535,609,2607,2772,3902,4992,2897,5302,4993,4994,5305
2536,1796,3854,3775,3865,5259,4970,5314,5260,5261,5315
2537,1659,3733,3621,3813,5177,5176,4464,4466,5316,4468
2538,3717,3766,1684,3858,5317,5318,5319,5320,4115,5321
2539,676,3721,3663,3800,5221,5322,5290,5222,5223,5291
2540,1782,3748,3629,3767,4755,4474,4558,4740,5323,4742
2541,1143,1090,1111,3725,1455,1316,1456,4290,4313,4703
2542,2650,3763,3670,3773,5324,5325,5326,5327,5329,5328
2543,3618,3659,3767,3885,5330,5331,4611,5332,5334,5333
2544,2643,2644,2645,3840,3308,3314,3313,4505,4506,5335
2545,3643,3823,3686,3824,4639,4871,4870,5276,5194,5192
2546,3732,3791,3643,3876,4916,4914,4564,5227,5228,5336
2547,1643,3704,1745,3896,4495,5337,2387,4836,4837,5338
2548,2634,3658,3782,3835,5093,5339,5340,5094,5095,5341
2549,1636,1683,1638,3743,2354,2353,2352,4709,4722,5307
2550,2721,3734,2773,3822,5342,4238,3100,5343,4748,4746
2551,1666,1747,1779,3677,2293,2496,2495,4030,5344,4359
2552,3629,1770,3695,3857,4473,5196,5195,4478,4476,5345
2553,3644,3776,3687,3861,5346,5347,5348,5349,5351,5350
2554,2706,2593,3647,3785,3074,4208,4886,4977,4281,4282
2555,3618,3767,3693,3885,4611,5352,4346,5332,5333,4933
2556,3629,1671,3767,3841,4559,4741,4742,4874,4872,5353
2557,1154,3706,3653,3729,5354,4318,4831,5355,5357,5356
2558,3626,3747,1775,3752,4778,4779,4502,4764,5358,4763
2559,2635,3778,2634,3835,5359,5091,3265,5360,5096,5094
2560,3631,2641,3698,3892,4897,4982,4981,4902,4900,4682
2561,2639,3667,2640,3892,5361,4228,3288,5362,4683,4681
2562,1759,3643,3791,3823,4560,4914,4915,4638,4639,5363
2563,3620,3675,3667,3765,4088,5364,5365,4126,4127,5366
2564,1747,1779,3677,3841,2496,4359,5344,5367,4369,4370
2565,623,1717,587,3770,4958,5368,789,5369,5371,5370
2566,2671,2777,3697,3844,3441,5372,4459,4853,5373,4111
2567,1640,3710,1639,3795,5374,4179,2361,4695,4255,4253
2568,3650,3718,3862,3904,5375,5376,5245,5248,5377,5250
2569,1737,1770,3748,3857,2124,4475,5378,5379,4476,4477
2570,3644,3776,2712,3810,5346,5380,5381,5382,4865,5383
2571,2800,2766,2798,3799,3540,3514,3158,4582,5161,4584
2572,3643,3758,2778,3778,5384,5385,5275,5273,5386,5274
2573,2768,3619,3728,3797,4409,5039,5038,4732,4733,4429
2574,3613,3642,3757,3799,4798,4743,4033,4909,4583,4910
2575,2666,3705,3740,3871,5387,3979,5388,5389,5391,5390
2576,2677,3689,3632,3772,4062,4063,4001,4782,4708,4781
2577,2788,3760,3619,3797,4663,4664,4408,4731,4222,4733
2578,1710,3756,3625,3795,4687,4688,4482,4486,5392,4485
2579,678,3770,664,3805,5393,5394,916,5395,5397,5396
2580,623,3678,1717,3770,4844,4959,4958,5369,5398,5371
2581,3628,3715,3678,3820,5125,4814,5399,5126,4819,4817
2582,3630,3687,3644,3776,5400,5348,5401,5402,5347,5346
2583,2676,3836,3615,3860,5403,5404,4594,4596,5405,4595
2584,3632,2725,3772,3796,4533,4780,4781,4973,4971,5406
2585,3638,1648,3768,3820,4954,5168,5167,5006,5004,5271
2586,2629,3728,3786,3876,5407,5408,5409,4399,5411,5410
2587,3617,3722,1743,3775,4616,4617,4373,4587,5412,4586
2588,2697,2785,3797,3833,3510,4221,5413,5414,5210,5211
2589,3615,3684,3665,3722,4136,5155,5415,4137,4138,5154
2590,1643,1668,3710,3896,2378,5416,4545,4836,5417,4926
2591,2807,3652,2742,3753,4680,3946,3597,5418,4078,4076
2592,1622,3750,3631,3817,5019,5018,4649,4651,5419,4653
2593,1718,587,1717,3770,5420,5368,1923,5421,5370,5371
2594,3638,3768,3699,3820,5167,4830,5422,5006,5271,5270
2595,2658,2806,2803,3830,3377,3389,3388,3917,4021,4049
2596,2595,615,646,3866,5010,871,5423,5308,5309,5424
2597,3645,3696,1793,3829,4091,4259,4258,4968,5425,5160
2598,495,3644,482,3741,5239,5238,566,5426,4627,5427
2599,2678,2680,2679,3680,3482,3481,3477,4302,4666,4338
2600,3621,3736,1661,3829,4812,4811,4465,4590,5428,4589
2601,1783,1780,3735,3748,2502,4620,5212,5215,5007,5008
2602,3652,3716,1159,3731,4167,5429,4758,5430,5432,5431
2603,2640,3799,3698,3895,5433,5434,4231,5097,4913,5164
2604,2805,2804,3769,3882,3098,3999,5435,5436,4436,4437
2605,3649,3766,3717,3858,4415,5317,5437,4820,4115,5320
2606,1746,3735,3681,3874,5438,5439,5440,5441,5443,5442
2607,2676,3689,3615,3836,4707,4706,4594,5403,4855,5404
2608,1644,1646,3704,3897,2391,5444,5059,5061,5445,5062
2609,663,3809,3832,3866,5446,5447,5448,5449,5451,5450
2610,2734,3779,2657,3879,4631,5452,3382,4632,4633,5453
2611,659,634,3651,3723,1044,4146,4716,5454,4129,4145
2612,1653,1654,3684,3873,2429,5455,4361,4404,5456,4406
2613,1184,3639,1148,3794,5457,5458,1488,5459,5461,5460
2614,1159,1120,3652,3753,1541,3943,4758,5462,4077,4078
2615,2732,591,627,3668,5463,877,5464,5465,5466,4341
2616,3619,3831,3694,3867,4557,5287,5467,4447,5119,5288
2617,3732,3791,3611,3815,4916,4522,5225,4204,4925,4676
2618,3632,3802,1680,3856,5312,5311,4894,4896,5468,4895
2619,473,484,483,3839,559,563,526,5469,3937,3938
2620,2650,3763,3773,3890,5324,5329,5327,5470,5472,5471
2621,664,3770,3671,3805,5394,5473,5474,5396,5397,4252
2622,691,3644,655,3861,4890,4625,996,5475,5349,5476
2623,3659,3748,3724,3773,5477,5478,5479,5480,5482,5481
2624,2727,2671,3826,3844,3450,4962,5483,5484,4853,5139
2625,1105,489,477,3794,5485,536,5486,5487,5489,5488
2626,3638,3671,3627,3897,4140,4235,5490,5491,5492,5189
2627,2779,2595,646,3866,2927,5423,5493,5494,5308,5424
2628,3672,3681,3623,3870,5140,4516,5495,4858,5141,5496
2629,2666,3871,2763,3907,5389,5497,3426,5498,5500,5499
2630,2733,2732,627,3668,2933,5464,4340,4332,5465,4341
2631,649,3637,686,3761,5501,5502,985,5503,5505,5504
2632,3638,3820,3697,3844,5006,5506,4098,4234,5507,4111
2633,2710,3687,3776,3861,5508,5347,5509,5510,5350,5351
2634,1783,3661,1737,3748,5214,5511,2588,5215,5216,5378
2635,362,374,1104,3730,421,5512,5513,5514,5516,5515
2636,663,3832,670,3866,5448,5517,1078,5449,5450,5518
2637,3652,3691,1159,3753,5519,5520,4758,4078,5521,5462
2638,2620,618,601,3707,5522,820,5172,5170,5523,5171
2639,3627,3671,3638,3705,4235,4140,5490,4163,4080,4143
2640,649,3707,3637,3761,5524,5525,5501,5503,5175,5505
2641,2597,2805,2804,3769,3094,3098,3097,4007,5435,3999
2642,3616,3740,3705,3871,5526,3979,5527,5528,5390,5391
2643,1141,3653,1154,3706,3968,4831,1427,4317,4318,5354
2644,3688,3738,3627,3897,4182,5188,5294,4775,4776,5189
2645,3611,3732,3658,3876,5225,4187,5529,5226,5227,5530
2646,3672,3674,3622,3701,5531,4175,4009,3915,5013,4008
2647,362,1104,1145,3730,5513,1202,5532,5514,5515,5533
2648,2785,2697,2784,3725,3510,3575,3201,4106,5535,5534
2649,2595,2734,3683,3866,3087,5536,5011,5308,5283,5310
2650,2729,2733,2595,3683,3084,2930,3085,4333,4334,5011
2651,3652,3716,3731,3850,4167,5432,5430,5537,5539,5538
2652,2709,3776,3687,3913,5540,5347,5541,5542,5544,5543
2653,2761,2809,3653,3706,3132,4794,3970,4316,5545,4318
2654,2743,3652,2807,3716,3942,4680,3596,4337,4167,4799
2655,1108,1159,3652,3716,1542,4758,3944,4336,5429,4167
2656,1148,3639,1184,3754,5458,5457,1488,5546,5548,5547
2657,3674,3701,3672,3779,5013,3915,5531,5549,4449,4450
2658,373,363,611,3761,398,5550,5551,5552,5554,5553
2659,1794,3654,3854,3865,4847,5555,5258,4848,4280,5261
2660,3635,3803,1777,3891,5234,5235,5030,5207,5556,5206
2661,488,612,478,3741,5557,5558,513,5559,5561,5560
2662,2809,3753,3653,3869,5562,4155,4794,5201,5563,5200
2663,2705,2778,3778,3824,3268,5274,5564,5565,5277,5278
2664,652,611,363,3761,709,5550,5566,5567,5553,5554
2665,3633,3755,1605,3893,5568,5569,4826,3972,5570,4827
2666,1574,3807,1687,3821,5571,5086,2053,5572,4701,5187
2667,666,3683,3668,3756,5183,4335,5182,5573,5574,4301
2668,3611,3786,3728,3876,5575,5408,5576,5226,5410,5411
2669,2595,2779,2734,3866,2927,3088,3087,5308,5494,5283
2670,2726,2713,3651,3723,3082,5577,4160,4130,5578,4145
2671,3697,3820,3628,3844,5506,5126,4851,4111,5507,4854
2672,2773,2625,2627,3702,3228,3226,3229,4240,4355,5579
2673,2804,3763,3634,3882,5251,5252,3997,4436,5281,4435
2674,609,2607,3663,3721,4992,4991,4990,5580,5581,5322
2675,3653,3869,3691,3896,5200,5582,5583,5584,5586,5585
2676,3635,3685,2787,3806,5587,5588,4573,4576,5589,4575
2677,596,629,1588,3686,741,5590,5591,5592,5594,5593
2678,3614,3724,3748,3773,5595,5478,5009,5596,5481,5482
2679,2652,3670,2650,3763,5597,5326,3347,5598,5325,5324
2680,1154,3729,3653,3863,5355,5356,4831,5599,5601,5600
2681,1597,1135,3682,3752,5602,5603,5604,5605,5606,4976
2682,3635,3751,2796,3782,5204,5607,4572,4998,5608,4997
2683,2623,618,2620,3707,5609,5522,2876,5610,5523,5170
2684,2620,2782,3707,3761,3209,5611,5170,5173,5612,5175
2685,2697,2784,3725,3833,3575,5534,5535,5414,5614,5613
2686,2715,3862,3718,3904,5297,5376,5615,5298,5250,5377
2687,1751,1684,3766,3858,2307,5318,4057,4113,5321,4115
2688,1171,3654,3706,3729,5616,5617,5618,5619,4278,5357
2689,1698,3648,1573,3789,5620,4042,2048,5621,4207,4205
2690,1729,596,1588,3686,5622,5591,1875,5623,5592,5593
2691,3613,3677,3642,3799,4029,4744,4798,4909,5624,4583
2692,3711,3748,3659,3773,5625,5477,5626,5627,5482,5480
2693,1746,1785,3735,3874,2501,5628,5438,5441,5629,5443
2694,2604,3653,2809,3753,3967,4794,3131,4154,4155,5562
2695,1605,3755,3633,3759,5569,5568,4826,4875,5630,3932
2696,3706,3654,3871,3899,5617,5631,5632,5633,5635,5634
2697,2717,2592,2711,3648,3065,3067,3066,5123,3947,4863
2698,2784,3749,3725,3833,5636,5637,5534,5614,4889,5613
2699,2710,3687,2709,3776,5508,5541,3505,5509,5347,5540
2700,649,601,3707,3761,982,5171,5524,5503,5174,5175
2701,1785,3838,3634,3874,5638,4151,5639,5629,5641,5640
2702,1717,1594,1758,3678,1926,2157,2159,4959,4845,4816
2703,1685,3720,3631,3765,5642,5055,4650,4808,5643,4807
2704,1700,3639,3789,3794,5644,5645,5646,5647,5461,5648
2705,664,647,3688,3770,915,5649,5650,5394,5652,5651
2706,1680,3662,1701,3802,5653,5654,2471,5311,5656,5655
2707,1684,3766,3717,3898,5318,5317,5319,5657,5659,5658
2708,1597,1135,1088,3682,5602,1228,5660,5604,5603,5661
2709,1683,3795,3641,3809,4726,4724,4721,5662,5664,5663
2710,1597,1088,1740,3682,5660,5665,1966,5604,5661,5666
2711,3658,3732,3611,3815,4187,5225,5529,4469,4204,4676
2712,1766,3636,3694,3816,5667,4805,5668,5669,5670,5098
2713,3721,3778,3686,3824,5671,5672,5673,5674,5278,5192
2714,3634,3735,1785,3874,5675,5628,5639,5640,5443,5629
2715,3644,3687,3630,3708,5348,5400,5401,4624,3984,5676
2716,1785,3735,3634,3838,5628,5675,5639,5638,5677,4151
2717,629,1588,3686,3800,5590,5593,5594,5678,5679,5244
2718,1157,3706,1154,3729,5680,5354,1572,5681,5357,5355
2719,3618,3693,3840,3885,4346,4931,4507,5332,4933,4934
2720,1084,1154,3653,3753,1428,4831,3966,4156,5682,4155
2721,3658,3675,3620,3732,4188,4088,5683,4187,3923,4153
2722,1137,1163,3655,3731,1560,5112,4069,4192,5684,4191
2723,1690,1589,3708,3883,2130,4036,5685,5686,4480,4481
2724,1680,3662,3802,3852,5653,5656,5311,5080,5186,5313
2725,664,3688,3671,3770,5650,5687,5474,5394,5651,5473
2726,2763,3871,3737,3907,5497,5688,5689,5499,5500,5690
2727,1766,3694,3636,3831,5668,4805,5667,5691,5287,5692
2728,1573,1801,476,3762,1844,5693,4040,4043,5694,4045
2729,3693,3799,2766,3886,5695,5161,5696,5697,4637,5162
2730,1176,489,1105,3794,5698,5485,1209,5699,5489,5487
2731,3641,1683,3809,3832,4721,5662,5663,5700,5701,5447
2732,658,672,3823,3824,1013,5190,5702,5703,5193,5194
2733,3662,1701,3802,3883,5654,5655,5656,4479,5705,5704
2734,3686,3721,3620,3778,5673,5706,4657,5672,5671,5707
2735,2764,2809,3740,3869,3552,5199,5708,5709,5201,5074
2736,2778,3778,3758,3876,5274,5386,5385,5710,5711,4400
2737,603,1600,622,3708,5179,5712,813,5105,5180,5713
2738,2628,2626,2630,3692,3231,3233,3232,4050,4394,4352
2739,2678,3680,2679,3689,4302,4338,3477,4324,4064,4952
2740,3644,3741,3708,3864,4627,4628,4624,5714,5716,5715
2741,1156,1159,3716,3731,1424,5429,5717,5718,5431,5432
2742,3653,3612,3869,3896,5719,5073,5200,5584,4838,5586
2743,2592,3780,2718,3839,4322,5720,3069,3949,4323,5721
2744,2657,2734,2702,3779,3382,3384,3373,5452,4631,5722
2745,2751,3664,1132,3818,5723,5724,5725,5726,5117,5727
2746,1794,3654,1593,3729,4847,4279,2151,5728,4278,4271
2747,2644,2642,3693,3698,3309,5729,4345,4225,5730,4347
2748,671,3718,3650,3742,5731,5375,4823,4809,5048,4410
2749,2798,3792,3642,3818,4796,4797,4580,5732,5733,5116
2750,1653,1654,1655,3684,2429,2434,2433,4361,5455,4135
2751,1611,3656,1609,3831,4343,5219,2214,5734,5736,5735
2752,2644,2643,2642,3698,3308,3304,3309,4225,4226,5730
2753,3614,3748,3711,3773,5009,5625,5737,5596,5482,5627
2754,3698,3799,3613,3895,5434,4909,4232,5164,4913,4911
2755,3706,3737,2813,3871,5738,5739,5740,5632,5688,5741
2756,3614,3773,3763,3890,5596,5329,5742,5743,5471,5472
2757,655,3644,3708,3861,4625,4624,4623,5476,5349,5744
2758,2702,3676,2750,3779,5745,5746,3374,5722,5748,5747
2759,612,488,683,3741,5557,5749,716,5561,5559,5750
2760,2703,3784,3840,3912,5751,5752,5753,5754,5756,5755
2761,1087,1163,1139,3769,1443,1442,1361,5132,4961,4671
2762,2639,2640,2641,3892,3288,3294,3293,5362,4681,4900
2763,3622,3790,3672,3850,4989,5757,4009,4214,4268,5758
2764,2816,3640,3793,3911,4430,4434,4432,5759,5761,5760
2765,691,3741,3644,3783,4891,4627,4890,5762,5763,5242
2766,2813,3737,3706,3849,5739,5738,5740,5764,5766,5765
2767,1666,3757,1778,3803,4031,5767,2498,4264,4265,5768
2768,3672,3790,3655,3850,5757,5769,5770,5758,4268,5771
2769,1686,3686,1756,3732,4869,4656,2259,4563,4658,4578
2770,3623,3779,3672,3870,5772,4450,5495,5496,4860,4858
2771,2717,3648,3776,3780,5123,4862,5272,5124,4321,4919
2772,1647,3854,1744,3899,5021,5773,2406,4737,5022,5774
2773,1093,3726,1732,3757,5134,5775,5776,5136,5137,5777
2774,1644,3738,1716,3897,5060,4679,2393,5061,4776,4774
2775,3616,3871,3654,3899,5528,5631,5778,4739,5634,5635
2776,3722,3847,3640,3860,4159,5779,5780,5781,5783,5782
2777,1692,3762,3648,3864,5218,4044,5217,5784,5786,5785
2778,665,666,3668,3756,1068,5182,4300,4217,5573,4301
2779,3644,3741,495,3783,4627,5426,5239,5242,5763,5241
2780,2727,2777,2671,3844,3176,3441,3450,5484,5373,4853
2781,3672,3790,3681,3874,5757,4824,5140,5787,5788,5442
2782,3651,3632,3719,3856,5789,4893,4117,4275,4896,4277
2783,3639,3787,1148,3794,5790,5791,5458,5461,5792,5460
2784,1783,1737,1780,3748,2588,2591,2502,5215,5378,5007
2785,1665,1611,1609,3831,2223,2214,2224,5793,5734,5735
2786,1099,1133,2754,3685,1328,5794,5795,5796,5798,5797
2787,1692,3648,3811,3864,5217,5799,5800,5784,5785,5801
2788,3638,3627,3768,3897,5490,5802,5167,5491,5189,5803
2789,3615,3847,3722,3860,4158,4159,4137,4595,5783,5781
2790,1635,3681,1633,3804,4517,5804,2337,4519,4520,5805
2791,3633,3692,3656,3759,4514,4051,3929,3932,5806,3934
2792,1163,3716,3655,3731,4960,5111,5112,5684,5432,4191
2793,2710,2712,3644,3776,3205,5381,5807,5509,5380,5346
2794,3618,3840,3659,3885,4507,5808,5330,5332,4934,5334
2795,2706,3692,3647,3833,4986,4985,4886,4888,5809,4887
2796,1159,3691,3652,3875,5520,5519,4758,5810,5812,5811
2797,2703,3784,2770,3840,5751,5813,3326,5753,5752,5814
2798,2721,656,3734,3822,5815,5816,5342,5343,5817,4748
2799,3754,3777,3639,3839,5818,5819,5548,5820,5822,5821
2800,368,358,2819,3749,411,5823,5824,4212,5826,5825
2801,3707,3761,2782,3855,5175,5612,5611,5148,5828,5827
2802,642,1729,1757,3686,5829,1872,5830,5831,5623,5832
2803,2705,2775,3721,3778,3278,5833,5834,5564,5835,5671
2804,686,3637,649,3889,5502,5501,985,5836,5838,5837
2805,3683,3809,663,3866,5839,5446,5840,5310,5451,5449
2806,2750,3779,3676,3819,5747,5748,5746,5841,5843,5842
2807,596,1729,642,3686,5622,5829,738,5592,5623,5831
2808,691,3783,3644,3861,5762,5242,4890,5475,5844,5349
2809,1692,1573,1698,3648,2046,2048,2047,5217,4042,5620
2810,2754,2616,1099,3685,2988,5845,5795,5797,5846,5796
2811,1690,3864,1664,3883,5847,5848,2479,5686,5850,5849
2812,3665,3697,3628,3826,4460,4851,5851,4694,4963,5138
2813,1135,1151,3682,3752,1449,5852,5603,5606,5853,4976
2814,2662,2764,3740,3869,3407,5708,5069,5072,5709,5074
2815,605,1697,1589,3708,5854,1944,4034,3983,5855,4036
2816,3651,3772,2713,3796,5856,5857,5577,4147,5406,5858
2817,1782,1737,1770,3748,2590,2124,2524,4755,5378,4475
2818,482,3644,3783,3810,5238,5242,5240,5859,5382,5860
2819,3652,3731,1159,3875,5430,5431,4758,5811,5861,5810
2820,2739,2610,2791,3769,3021,3160,3159,5051,4672,5079
2821,2630,3797,3692,3833,4353,4074,4352,5862,5211,5809
2822,3703,3724,2789,3886,5863,5864,5865,5866,5868,5867
2823,3653,3706,2809,3871,4318,5545,4794,5869,5632,5870
2824,1171,3706,1157,3729,5618,5680,1409,5619,5357,5681
2825,3777,3780,3639,3839,5871,5872,5819,5822,4323,5821
2826,1673,3814,3704,3899,5873,5874,5267,5268,5875,4841
2827,2634,3782,2636,3835,5340,5876,3270,5094,5341,5877
2828,3660,3734,621,3822,4876,5878,5879,5150,4748,5880
2829,2778,3822,3643,3824,5881,5882,5275,5277,5883,5276
2830,1791,1679,3764,3829,2536,5884,4965,4967,5885,4969
2831,3616,3854,3699,3899,5886,4551,4735,4739,5022,4738
2832,367,3637,380,3788,5887,5888,452,5889,5891,5890
2833,3682,3752,1151,3808,4976,5853,5852,5892,5894,5893
2834,1663,3811,3764,3829,5895,5896,5897,5898,5899,4969
2835,1158,1159,3691,3753,1561,5520,5900,5901,5462,5521
2836,2667,3638,3705,3907,4148,4143,4149,5902,5904,5903
2837,3775,3854,3654,3865,4970,5555,5905,5315,5261,4280
2838,1779,3757,3841,3905,4360,4371,4369,5906,5908,5907
2839,478,3741,612,3783,5560,5561,5558,5909,5763,5910
2840,642,3686,1757,3823,5831,5832,5830,5911,4871,5912
2841,1766,3831,3636,3884,5691,5692,5667,5913,5915,5914
2842,3649,3840,3784,3912,5916,5752,5917,5918,5755,5756
2843,2705,3778,3721,3824,5564,5671,5834,5565,5278,5674
2844,617,3678,669,3715,4846,5919,1056,4866,4814,5920
2845,1104,3730,374,3851,5515,5516,5512,5921,5923,5922
2846,3716,3769,3655,3830,4673,5113,5111,4168,5255,5924
2847,3725,3749,3636,3833,5637,5925,4105,5613,4889,5209
2848,3645,3777,1150,3828,5926,5927,4200,4328,5928,4327
2849,3642,3799,3693,3886,4583,5695,5929,4636,4637,5697
2850,380,3637,367,3761,5888,5887,452,5930,5505,5931
2851,476,1801,481,3762,5693,5932,546,4045,5694,5933
2852,1753,600,3720,3800,5934,5230,5935,5936,5231,5232
2853,1700,3789,1602,3794,5646,5937,2195,5647,5648,5938
2854,1648,3770,3768,3897,4955,5169,5168,5939,5940,5803
2855,3657,3725,1179,3730,5941,5942,5943,5944,5946,5945
2856,1166,3806,3685,3891,5947,5589,5948,5949,5951,5950
2857,591,3668,2732,3853,5466,5465,5463,5952,5954,5953
2858,1774,1597,3682,3752,2172,5604,4974,4762,5605,4976
2859,2616,1099,3685,3808,5845,5796,5846,5955,5957,5956
2860,1618,3765,1620,3842,4125,5958,2266,4790,4791,5959
2861,3638,3627,3705,3768,5490,4163,4143,5167,5802,5960
2862,1753,629,600,3800,5961,744,5934,5936,5678,5231
2863,658,3823,3822,3824,5702,5962,5963,5703,5194,5883
2864,1648,1650,3699,3820,2410,5964,5269,5004,5965,5270
2865,1791,1674,1679,3829,2535,2483,2536,4967,5966,5885
2866,2810,3828,3777,3906,5967,5928,5968,5969,5971,5970
2867,1767,3657,3816,3851,5972,5973,5974,5975,5977,5976
2868,1096,1148,3787,3794,1487,5791,5978,5979,5460,5792
2869,3642,3841,3757,3905,4745,4371,4743,5980,5907,5908
2870,3641,3743,1683,3832,4723,4722,4721,5700,5981,5701
2871,3822,3823,3643,3824,5962,4639,5882,5883,5194,5276
2872,1166,3726,3806,3891,5982,5983,5947,5949,5984,5951
2873,1686,1757,3686,3823,2572,5832,4869,4640,5912,4871
2874,2725,2713,3772,3796,3080,5857,4780,4971,5858,5406
2875,1745,3704,3814,3896,5337,5874,5985,5338,4837,5986
2876,3748,3767,1782,3910,5323,4740,4755,5987,5989,5988
2877,1697,622,1600,3708,5990,5712,1947,5855,5713,5180
2878,2670,3737,2694,3901,5991,5992,3435,5993,5995,5994
2879,3644,3762,3741,3864,5996,5997,4627,5714,5786,5716
2880,648,2737,613,3671,5998,5999,883,6000,6002,6001
2881,1734,1093,1732,3757,6003,5776,1978,6004,5136,5777
2882,1753,1588,629,3800,1878,5590,5961,5936,5679,5678
2883,1611,3771,3656,3831,4344,4038,4343,5734,6005,5736
2884,1692,3648,1698,3811,5217,5620,2047,5800,5799,6006
2885,3696,3878,1161,3900,6007,6008,6009,6010,6012,6011
2886,1634,1635,1633,3804,2338,2337,2332,4588,4519,5805
2887,3683,3866,2734,3879,5310,5283,5536,4568,5285,4632
2888,480,3639,494,3794,6013,6014,573,6015,5461,6016
2889,2757,2755,1174,3679,3012,6017,6018,4949,6020,6019
2890,1093,1734,1138,3757,6003,6021,1240,5136,6004,6022
2891,3764,3777,3645,3906,6023,5926,4966,6024,5970,6025
2892,605,622,1697,3708,810,5990,5854,3983,5713,5855
2893,1766,3636,3816,3884,5667,5670,5669,5913,5914,6026
2894,3737,3871,3616,3907,5688,5528,6027,5690,5500,6028
2895,2669,3697,2777,3844,4256,5372,3440,4257,4111,5373
2896,2751,1132,2753,3818,5725,6029,2997,5726,5727,6030
2897,1174,1101,2757,3679,1352,4947,6018,6019,4950,4949
2898,2719,3777,3754,3839,6031,5818,6032,6033,5822,5820
2899,682,650,3734,3755,964,6034,6035,6036,6038,6037
2900,648,2596,2737,3671,6039,2939,5998,6000,6040,6002
2901,3764,3780,3777,3906,6041,5871,6023,6024,6042,5970
2902,3721,3778,2775,3877,5671,5835,5833,6043,6045,6044
2903,3678,3820,3638,3844,4817,5006,6046,6047,5507,4234
2904,1651,3699,1650,3727,4547,5964,2415,4713,4834,6048
2905,1179,3657,1142,3725,5943,6049,1477,5942,5941,6050
2906,1691,3708,1600,3741,6051,5180,2185,6052,4628,5181
2907,665,666,627,3668,1068,1049,932,4300,5182,4341
2908,1644,1682,1716,3738,2382,2394,2393,5060,4183,4679
2909,1132,1103,2753,3818,1337,6053,6029,5727,6054,6030
2910,2640,3667,2638,3751,4228,6055,3289,4329,4330,6056
2911,1690,3708,3864,3883,5685,5715,5847,5686,4481,5850
2912,1769,1773,1586,3867,2119,2118,2115,4445,4446,6057
2913,3681,3735,3634,3874,5439,5675,6058,5442,5443,5640
2914,1696,3742,3650,3880,4612,4410,4423,6059,6061,6060
2915,3618,3774,3649,3840,4767,5292,4413,4507,4868,5916
2916,1754,3660,1579,3823,6062,4286,2081,6063,4531,4532
2917,3641,3832,3809,3866,5700,5447,5663,5284,5450,5451
2918,1711,3770,1648,3897,6064,4955,2402,6065,5940,5939
2919,1176,1105,1184,3794,1209,1530,1491,5699,5487,5459
2920,621,3734,3660,3834,5878,4876,5879,6066,6067,4288
2921,642,672,3686,3823,960,5191,5831,5911,5190,4871
2922,3624,3670,3650,3880,6068,6069,6070,6071,6072,6060
2923,3646,3878,3696,3900,6073,6007,6074,6075,6012,6010
2924,1780,3711,1631,3903,6076,6077,2321,4645,6079,6078
2925,1664,3864,3811,3883,5848,5801,6080,5849,5850,6081
2926,3636,3725,3657,3749,4105,5941,6082,5925,5637,6083
2927,477,489,494,3794,536,575,583,5488,5489,6016
2928,629,676,600,3800,978,977,744,5678,5222,5231
2929,2729,2701,2733,3668,3403,3582,3084,3953,3963,4332
2930,1780,3748,3711,3903,5007,5625,6076,4645,5263,6079
2931,660,3715,669,3723,6084,5920,941,6085,6087,6086
2932,2702,3676,3779,3866,5745,5748,5722,6088,6090,6089
2933,595,3660,621,3823,4285,5879,952,4530,4531,6091
2934,667,3687,3662,3888,6092,3981,6093,6094,6096,6095
2935,603,622,655,3708,813,994,993,5105,5713,4623
2936,680,3717,3649,3912,6097,5437,6098,6099,6100,5918
2937,2818,2814,3836,3878,3573,6101,6102,6103,6105,6104
2938,656,621,3734,3822,1064,5878,5816,5817,5880,4748
2939,476,481,485,3762,546,579,578,4045,5933,4066
2940,3792,3818,1168,3905,5733,6106,6107,6108,6110,6109
2941,1785,3781,3838,3874,6111,6112,5638,5629,6113,5641
2942,2636,2635,2634,3835,3269,3265,3270,5877,5360,5094
2943,638,667,605,3662,1007,1006,807,4614,6093,3980
2944,1096,1184,1148,3794,1489,1488,1487,5979,5459,5460
2945,2719,3780,3777,3839,6114,5871,6031,6033,4323,5822
2946,2655,2654,3779,3870,3362,4856,6115,6116,4859,4860
2947,3669,3736,3680,3872,6117,6118,6119,6120,6121,4307
2948,3623,3681,3672,3790,4516,5140,5495,4661,4824,5757
2949,1663,3764,1679,3829,5897,5884,2484,5898,4969,5885
2950,368,2819,2593,3749,5824,2850,4210,4212,5825,4211
2951,362,379,374,3730,467,460,421,5514,6122,5516
2952,1728,1596,1128,3700,2029,6123,6124,6125,6127,6126
2953,1081,1128,1596,3700,1291,6123,6128,6129,6126,6127
2954,1764,3637,1763,3807,6130,6131,2192,6132,6134,6133
2955,1153,3845,3673,3865,6135,6136,6137,6138,6140,6139
2956,3632,3802,3662,3852,5312,5656,6141,5082,5313,5186
2957,2798,3642,3799,3818,4580,4583,4584,5732,5116,6142
2958,3653,3753,3691,3869,4155,5521,5583,5200,5563,5582
2959,373,380,363,3761,454,471,398,5552,5930,5554
2960,680,3744,3717,3912,6143,5053,6097,6099,6144,6100
2961,2700,2669,2777,3844,3431,3440,3442,4110,4257,5373
2962,3647,3771,1687,3821,5264,5265,5085,4493,6145,5187
2963,3665,3727,3684,3873,5156,4365,5155,6146,4405,4406
2964,1118,1101,1164,3679,1355,1513,1512,3988,4950,4089
2965,676,3663,674,3720,5290,6147,981,5229,5289,6148
2966,682,3734,621,3834,6035,5878,1062,6149,6067,6066
2967,1668,3812,3710,3896,6150,4772,5416,5417,6151,4926
2968,2722,3777,2810,3828,6152,5968,3198,6153,5928,5967
2969,3706,3729,3654,3899,5357,4278,5617,5633,6154,5635
2970,662,3714,668,3719,6155,6156,1077,6157,6159,6158
2971,2756,2789,3703,3724,3143,5865,6160,6161,5864,5863
2972,1696,3650,3804,3880,4423,4937,4938,6059,6060,6162
2973,3660,3702,3633,3734,4877,4571,6163,4876,4239,4850
2974,3707,3734,650,3755,5262,6034,6164,6165,6037,6038
2975,673,676,629,3800,1028,978,957,5224,5222,5678
2976,3637,3788,367,3807,5891,5889,5887,6134,6167,6166
2977,3670,3763,3614,3773,5325,5742,6168,5328,5329,5596
2978,2712,3783,3644,3810,6169,5242,5381,5383,5860,5382
2979,3680,3736,3621,3872,6118,4812,4303,4307,6121,4306
2980,665,3688,3668,3853,4215,4299,4300,6170,6171,5954
2981,365,3657,379,3730,6172,6173,457,6174,5944,6122
2982,3655,3850,3790,3874,5771,4268,5769,6175,6176,5788
2983,1777,3803,1733,3891,5235,6177,2585,5206,5556,6178
2984,1701,3662,1589,3883,5654,4035,2132,5705,4479,4480
2985,1150,3777,3645,3787,5927,5926,4200,4382,6179,4093
2986,1577,3688,647,3770,6180,5649,6181,6182,5651,5652
2987,2794,3808,3685,3881,6183,5956,6184,6185,6187,6186
2988,1179,1145,1104,3730,1479,1202,1527,5945,5533,5515
2989,3630,3687,3662,3708,5400,3981,6188,5676,3984,3985
2990,3655,3874,3672,3882,6175,5787,5770,6189,6190,5142
2991,3650,3718,671,3862,5375,5731,4823,5245,5376,6191
2992,3625,3683,3668,3879,6192,4335,4095,4094,4568,3974
2993,659,3651,3796,3868,4716,4147,4717,6193,4120,6194
2994,2670,2668,3737,3907,3434,6195,5991,6196,6197,5690
2995,3675,3667,3765,3842,5364,5366,4127,4792,6198,4791
2996,3639,3754,1148,3777,5548,5546,5458,5819,5818,6199
2997,2778,3758,3643,3822,5385,5384,5275,5881,4747,5882
2998,1131,1703,1098,3696,6200,4022,1300,6201,4024,4023
2999,1583,1703,1131,3696,2038,6200,6202,6203,4024,6201
3000,1163,1156,3716,3731,1571,5717,4960,5684,5718,5432
3001,611,652,686,3761,709,987,1034,5553,5567,5504
3002,2669,2671,2777,3697,3438,3441,3440,4256,4459,5372
3003,1695,1607,1611,3759,2205,2213,2215,6204,3933,4569
3004,3645,3777,3764,3787,5926,6023,4966,4093,6179,5041
3005,1647,3699,1649,3854,4736,6205,2404,5021,4551,6206
3006,1171,3706,3654,3849,5618,5617,5616,6207,5765,6208
3007,2592,2822,473,3839,2866,6209,6210,3949,6211,5469
3008,2670,2668,2694,3737,3434,3436,3435,5991,6195,5992
3009,1666,1776,1621,3842,2283,2272,2281,4787,5300,5046
3010,1763,3637,3759,3807,6131,6212,6213,6133,6134,5087
3011,673,3686,3721,3800,6214,5673,5220,5224,5244,5223
3012,3639,3777,3764,3780,5819,6023,6215,5872,5871,6041
3013,1113,1586,1740,3867,6216,1963,6217,6218,6057,6219
3014,1740,1088,1113,3867,5665,1225,6217,6219,6220,6218
3015,3655,3634,3874,3882,6221,5640,6175,6189,4435,6190
3016,1651,1649,3699,3854,2414,6205,4547,4549,6206,4551
3017,1754,3791,3660,3823,6222,6223,6062,6063,5363,4531
3018,2791,3769,3830,3882,5079,5255,5254,6224,4437,6225
3019,1105,477,3754,3794,5486,6226,6227,5487,5488,6228
3020,369,3749,3647,3821,4455,4213,4454,4515,6229,4493
3021,2757,2597,2804,3679,3015,3097,3096,4949,4006,3996
3022,2731,1085,2601,3673,6230,6231,3042,6232,6234,6233
3023,1085,2731,1117,3673,6230,6235,1382,6234,6232,6236
3024,1758,3715,1708,3873,4815,6237,2158,5088,5089,6238
3025,1764,3788,3637,3807,6239,5891,6130,6132,6167,6134
3026,1687,1689,3759,3807,2056,6240,5083,5086,6241,5087
3027,3632,3651,3772,3856,5789,5856,4781,4896,4275,6242
3028,3790,3850,1672,3874,4268,6243,6244,5788,6176,6245
3029,674,3720,3663,3902,6148,5289,6147,6246,6247,4995
3030,674,3663,676,3902,6147,5290,981,6246,4995,6248
3031,1155,1161,3837,3900,1570,6249,6250,6251,6011,6252
3032,3702,3791,3660,3798,6253,6223,4877,6254,4783,6255
3033,3636,3725,3694,3816,4105,4291,4805,5670,5100,5098
3034,3665,3772,3615,3860,4690,4592,5415,4757,4597,4595
3035,3639,3764,1700,3789,6215,6256,5644,5645,6257,5646
3036,1655,1656,1657,3856,2438,2444,2443,6258,6259,4605
3037,2708,3785,2706,3855,6260,4977,3076,6261,4979,4980
3038,1642,1682,3738,3756,2383,4183,4699,4686,4184,4185
3039,1162,1153,3673,3865,1434,6137,6262,6263,6138,6139
3040,2662,2664,3690,3740,3405,3957,5128,5069,3977,3978
3041,3650,3670,3624,3904,6069,6068,6070,5248,6265,6264
3042,1767,3816,1177,3851,5974,6266,6267,5975,5976,6268
3043,661,3688,665,3853,6269,4215,936,6270,6171,6170
3044,3662,3680,3632,3714,6271,4003,6141,6272,4309,4310
3045,3656,3759,3692,3771,3934,5806,4051,4038,4039,6273
3046,1698,3764,3648,3789,6274,6275,5620,5621,6257,4207
3047,2794,2616,3685,3808,3189,5846,6184,6183,5955,5956
3048,2721,2598,656,3822,2885,6276,5815,5343,6277,5817
3049,1655,3684,1656,3856,4135,6278,2438,6258,4276,6259
3050,3656,3798,3633,3893,4379,6279,3929,3973,4380,3972
3051,1785,1786,3781,3874,2079,6280,6111,5629,6281,6113
3052,3643,3686,3778,3824,4870,5672,5273,5276,5192,5278
3053,2657,3779,3701,3879,5452,4449,6282,5453,4633,6283
3054,1147,3661,3679,3843,6284,6285,6286,6287,6289,6288
3055,1177,3816,3657,3851,6266,5973,6290,6268,5976,5977
3056,1650,3727,3699,3820,6048,4834,5964,5965,6291,5270
3057,1718,647,587,3770,6292,786,5420,5421,5652,5370
3058,636,671,604,3848,1002,1001,765,4390,4810,4918
3059,3712,3828,2812,3906,6293,6294,6295,6296,5971,6297
3060,3745,3808,2793,3881,6298,6299,6300,6301,6187,6302
3061,2754,1133,1102,3806,5794,1331,6303,6304,6306,6305
3062,2714,3692,2624,3855,6307,4513,3224,6308,4643,4641
3063,1674,1663,1679,3829,2475,2484,2483,5966,5898,5885
3064,3701,3710,3625,3795,5012,4941,6309,5014,4255,4485
3065,3641,3809,3683,3866,5663,5839,6310,5284,5451,5310
3066,682,3755,3734,3834,6036,6037,6035,6149,6311,6067
3067,1168,1167,3757,3818,1526,5135,6312,6106,6313,5118
3068,1574,361,3807,3821,6314,4508,5571,5572,4492,4701
3069,1623,3677,1666,3750,5110,4030,2282,6315,4761,4759
3070,2656,2655,2654,3779,3365,3362,3366,4448,6115,4856
3071,3640,3847,3713,3860,5779,6316,4487,5782,5783,6317
3072,691,612,683,3741,1037,716,998,4891,5561,5750
3073,2720,2699,2679,3680,3490,3479,3488,4821,4004,4338
3074,2626,2624,2714,3692,3222,3224,3223,4394,4513,6307
3075,1577,647,1718,3770,6181,6292,1920,6182,5652,5421
3076,480,3789,3639,3794,6318,5645,6013,6015,5648,5461
3077,359,367,3788,3807,449,5889,6319,6320,6166,6167
3078,1764,1763,3637,3788,2192,6131,6130,6239,6321,5891
3079,1686,1756,1616,3732,2259,2258,2247,4563,4578,4152
3080,3652,3691,3869,3896,5519,5582,6322,6323,5585,5586
3081,1771,1096,3787,3794,6324,5978,6325,6326,5979,5792
3082,2755,1174,3679,3843,6017,6019,6020,6327,6328,6288
3083,488,478,495,3741,513,585,569,5559,5560,5426
3084,2754,3685,1133,3806,5797,5798,5794,6304,5589,6306
3085,3639,3764,3777,3787,6215,6023,5819,5790,5041,6179
3086,3702,3758,3660,3791,4242,4878,4877,6253,6329,6223
3087,3664,3751,3635,3803,4785,5204,5205,6330,6331,5234
3088,1647,1649,1744,3854,2404,2407,2406,5021,6206,5773
3089,3651,3723,2713,3826,4145,5578,5577,6332,6334,6333
3090,473,483,2592,3839,526,3948,6210,5469,3938,3949
3091,1618,1619,3675,3842,2261,6335,4087,4790,6336,4792
3092,3679,3763,2804,3890,5253,5251,3996,6337,5472,6338
3093,3644,3708,3630,3864,4624,5676,5401,5714,5715,6339
3094,1651,1675,1649,3854,2417,2416,2414,4549,4577,6206
3095,482,3741,3644,3762,5427,4627,5238,6340,5997,5996
3096,1642,1710,1682,3756,2373,2384,2383,4686,4687,4184
3097,3677,3750,1623,3817,4761,6315,5110,4442,5419,5149
3098,2672,2671,3665,3826,3443,4457,4456,6341,4962,4694
3099,1589,1701,1762,3662,2132,2134,1941,4035,5654,4685
3100,3713,3847,3615,3860,6316,4158,6342,6317,5783,4595
3101,2599,2754,1102,3806,2991,6303,6343,6344,6304,6305
3102,3642,3841,3695,3886,4745,5197,6345,4636,6347,6346
3103,611,373,3761,3788,5551,5552,5553,6348,6350,6349
3104,1617,3675,1777,3747,3950,5028,2262,4005,3926,5031
3105,1166,3685,3752,3891,5948,6351,6352,5949,5950,6353
3106,1766,1678,3831,3884,2490,6354,5691,5913,6355,5915
3107,3640,3713,3793,3860,4487,4489,4434,5782,6317,6356
3108,3630,3708,3662,3883,5676,3985,6188,6357,4481,4479
3109,1698,3648,3764,3811,5620,6275,6274,6006,5799,5896
3110,2810,2812,3828,3906,3558,6294,5967,5969,6297,5971
3111,654,3718,671,3742,5025,5731,1022,5047,5048,4809
3112,1740,3682,1088,3867,5666,5661,5665,6219,5157,6220
3113,3686,3732,3643,3778,4658,4564,4870,5672,6358,5273
3114,3751,3803,3664,3895,6331,6330,4785,4752,6359,4786
3115,3620,3732,3686,3778,4153,4658,4657,5707,6358,5672
3116,1612,1614,1613,3791,2237,2236,2227,4521,5107,4523
3117,1172,3781,3769,3838,6360,6361,6362,6363,6112,3991
3118,3631,3720,3666,3739,5055,4173,5056,6364,5077,5075
3119,1714,1713,1682,3756,1914,2564,2563,4607,4262,4184
3120,3635,3685,3747,3881,5587,6365,5032,6366,6186,6367
3121,360,3657,365,3821,6368,6172,456,6369,6371,6370
3122,3615,3722,3665,3860,4137,5154,5415,4595,5781,4757
3123,2706,2593,2707,3749,3074,3073,3072,4885,4211,6372
3124,2629,3786,2632,3876,5409,6373,3246,4399,5410,6374
3125,3680,3872,2680,3908,4307,4667,4666,6375,6377,6376
3126,668,3719,3714,3852,6158,6159,6156,6378,5081,6379
3127,673,629,3686,3800,957,5594,6214,5224,5678,5244
3128,599,3717,654,3742,6380,5023,974,6381,5049,5047
3129,632,3717,680,3744,5024,6097,1071,5052,5053,6143
3130,686,3788,3637,3889,6382,5891,5502,5836,6383,5838
3131,3649,3717,680,3858,5437,6097,6098,4820,5320,6384
3132,678,3678,3770,3805,6385,5398,5393,5395,6386,5397
3133,3749,3833,3647,3884,4889,4887,4213,6387,6389,6388
3134,3620,3675,3658,3835,4088,4188,5683,6390,6391,5095
3135,1667,3681,1746,3735,6392,5440,2341,4621,5439,5438
3136,2807,3746,3652,3869,6393,4014,4680,6394,5153,6322
3137,2631,2627,2629,3702,3237,3235,3238,4540,5579,4541
3138,2794,2793,3808,3881,3193,6299,6183,6185,6302,6187
3139,3714,3719,662,3796,6159,6157,6155,4972,6396,6395
3140,1646,3768,3704,3897,6397,4964,5444,5445,5803,5062
3141,3629,3695,3841,3886,5195,5197,4874,6398,6346,6347
3142,1179,3730,1104,3851,5945,5515,1527,6399,5923,5921
3143,3622,3674,3672,3790,4175,5531,4009,4989,4267,5757
3144,3654,3729,1794,3899,4278,5728,4847,5635,6154,6400
3145,3687,3776,3630,3913,5347,5402,5400,5543,5544,6401
3146,632,654,599,3717,975,974,972,5024,5023,6380
3147,370,3647,3785,3807,4461,4282,4674,4509,4510,6402
3148,2722,1130,3777,3828,6403,6404,6152,6153,6405,5928
3149,1614,1759,3732,3791,2238,4562,5114,5107,4915,4916
3150,1778,3757,3726,3803,5767,5137,6406,5768,4265,6407
3151,1644,3704,1643,3738,5059,4495,2380,5060,4498,4499
3152,3678,3715,3628,3844,4814,5125,5399,6047,6408,4854
3153,2674,2676,2675,3772,3463,3462,3458,4691,4593,6409
3154,3652,3753,2807,3869,4078,5418,4680,6322,5563,6394
3155,482,3783,487,3810,5240,6410,557,5859,5860,6411
3156,1728,3700,1128,3845,6125,6126,6124,6412,6414,6413
3157,3642,3818,3792,3905,5116,5733,4797,5980,6110,6108
3158,1167,3664,1169,3726,5158,6415,1474,5133,5159,6416
3159,681,3718,632,3744,6417,5026,1073,6418,5054,5052
3160,3660,3822,621,3823,5150,5880,5879,4531,5962,6091
3161,1778,1732,3726,3757,2582,5775,6406,5767,5777,5137
3162,3655,3769,1163,3781,5113,4961,5112,4071,6361,6419
3163,2808,3753,2809,3869,6420,5562,3133,6421,5563,5201
3164,3777,3828,3645,3906,5928,4328,5926,5970,5971,6025
3165,3659,3724,3748,3885,5479,5478,5477,5334,6423,6422
3166,1147,3679,3661,3859,6286,6285,6284,6424,6426,6425
3167,2598,651,656,3822,6427,829,6276,6277,6428,5817
3168,2706,3749,2707,3833,4885,6372,3072,4888,4889,6429
3169,603,655,691,3741,993,996,995,5106,4626,4891
3170,487,3783,2712,3810,6410,6169,6430,6411,5860,5383
3171,379,374,3730,3851,460,5516,6122,6431,5922,5923
3172,3615,3689,3772,3856,4706,4708,4592,4603,6432,6242
3173,1177,1142,1179,3657,1485,1477,1528,6290,6049,5943
3174,3625,3690,3668,3738,4219,4047,4095,4700,6433,4339
3175,2784,3730,3725,3749,6434,5946,5534,5636,6435,5637
3176,590,3683,666,3756,6436,5183,928,6437,5574,5573
3177,681,654,632,3718,1023,975,1073,6417,5025,5026
3178,2672,2674,2673,3665,3453,3452,3449,4456,4689,4942
3179,3635,3747,3782,3881,5032,6438,4998,6366,6367,6439
3180,3620,3667,3663,3765,5365,6440,6441,4126,5366,6442
3181,3655,3790,3672,3874,5769,5757,5770,6175,5788,5787
3182,3656,3797,3636,3833,4075,4220,6443,6444,5211,5209
3183,367,3761,3637,3785,5931,5505,5887,6445,6447,6446
3184,3629,3748,3724,3885,4474,5478,6448,6449,6422,6423
3185,3659,3748,3629,3885,5477,4474,6450,5334,6422,6449
3186,2770,3784,3774,3840,5813,6451,6452,5814,5752,4868
3187,1643,1645,1745,3704,2385,2388,2387,4495,6453,5337
3188,3670,3650,3819,3904,6069,5247,6454,6265,5248,5249
3189,3669,3776,3630,3811,4921,5402,6455,6456,6458,6457
3190,1634,1731,3743,3804,2345,5063,4710,4588,5243,4939
3191,2788,2785,3760,3797,3513,4107,4663,4731,4221,4222
3192,475,3789,480,3794,6459,6318,570,6460,5648,6015
3193,3649,3766,3846,3898,4415,6461,6462,6463,5659,6464
3194,3811,3864,3630,3883,5801,6339,6457,6081,5850,6357
3195,3643,3778,3732,3876,5273,6358,4564,5336,5711,5227
3196,3684,3772,3651,3856,6465,5856,4118,4276,6242,4275
3197,3683,3756,590,3809,5574,6437,6436,5839,6467,6466
3198,661,3671,664,3688,6468,5474,1079,6269,5687,5650
3199,2738,594,625,3676,6469,865,6470,6471,6473,6472
3200,1774,3682,1773,3709,4974,5033,2514,4535,5037,5035
3201,3693,3698,2642,3799,4347,5730,5729,5695,5434,6474
3202,3636,3833,3749,3884,5209,4889,5925,5914,6389,6387
3203,2640,2639,2638,3667,3288,3285,3289,4228,5361,6055
3204,1611,1665,3771,3831,2223,6475,4344,5734,5793,6005
3205,3640,3793,3722,3860,4434,6476,5780,5782,6356,5781
3206,2816,3793,3673,3911,4432,6477,6478,5759,5760,6479
3207,3655,3830,3769,3882,5924,5255,5113,6189,6225,4437
3208,1797,3845,3775,3847,6480,6481,6482,6483,6485,6484
3209,1642,1643,3710,3738,2376,4545,4940,4699,4499,4546
3210,1673,1645,1647,3704,2397,2395,2398,5267,6453,4839
3211,3694,3760,3636,3797,4294,4109,4805,6486,4222,4220
3212,2592,2717,2718,3780,3065,3070,3069,4322,5124,5720
3213,3622,3652,3812,3850,5233,6487,4773,4214,5537,5130
3214,3642,3693,3841,3886,5929,6488,4745,4636,5697,6347
3215,3611,3758,3702,3791,6489,4242,6490,4522,6329,6253
3216,1737,3748,3661,3857,5378,5216,5511,5379,4477,6491
3217,360,3657,1603,3851,6368,6492,6493,6494,5977,6495
3218,3669,3872,3680,3908,6120,4307,6119,4923,6377,6375
3219,3656,3636,3771,3833,6443,6496,4038,6444,5209,6497
3220,686,3761,3637,3788,5504,5505,5502,6382,6349,5891
3221,3676,3779,3743,3819,5748,6498,6499,5842,5843,6500
3222,1670,1617,1777,3747,2253,2262,2264,6501,4005,5031
3223,1170,3792,1168,3905,6502,6107,1464,6503,6108,6109
3224,1603,3657,360,3821,6492,6368,6493,6504,6371,6369
3225,667,668,3662,3852,946,6505,6093,6506,6378,5186
3226,482,495,487,3783,566,586,557,5240,5241,6410
3227,1138,1167,1093,3757,1473,1472,1240,6022,5135,5136
3228,1667,3681,3735,3903,6392,5439,4621,4644,6507,4951
3229,675,3720,674,3739,4705,6148,1033,5076,5077,6508
3230,3611,3791,3702,3798,4522,6253,6490,4471,4783,6254
3231,609,3663,676,3721,4990,5290,1024,5580,5322,5221
3232,2783,3761,3785,3855,6509,6447,6510,6511,5828,4979
3233,3656,3692,3633,3702,4051,4514,3929,4054,4055,4571
3234,360,379,365,3657,458,457,456,6368,6173,6172
3235,1184,3754,3639,3794,5547,5548,5457,5459,6228,5461
3236,3779,3819,2655,3870,5843,6512,6115,4860,6513,6116
3237,3613,3698,3667,3750,4232,4233,4229,4760,6515,6514
3238,3637,3761,380,3788,5505,5930,5888,5891,6349,5890
3239,478,495,3741,3783,585,5426,5560,5909,5241,5763
3240,680,3858,3784,3912,6384,6516,6517,6099,6518,5756
3241,649,3637,3707,3889,5501,5525,5524,5837,5838,6519
3242,494,3639,3754,3794,6014,5548,6520,6016,5461,6228
3243,2773,3702,2627,3758,4240,5579,3229,4241,4242,6521
3244,2698,2682,3669,3780,3502,6522,6523,6524,6525,4920
3245,625,2611,2738,3676,6526,2921,6470,6472,6527,6471
3246,649,601,618,3707,982,820,983,5524,5171,5523
3247,1663,3736,3811,3829,6528,6529,5895,5898,5428,5899
3248,1643,1644,1645,3704,2380,2386,2385,4495,5059,6453
3249,1759,1686,1614,3732,2249,2248,2238,4562,4563,5114
3250,3701,3779,3641,3879,4449,4630,6530,6283,4633,4634
3251,3654,3775,3617,3854,5905,4587,6531,5555,4970,4550
3252,3668,3738,3690,3909,4339,6433,4047,3994,6532,3962
3253,3615,3665,3684,3772,5415,5155,4136,4592,4690,6465
3254,3630,3776,3644,3864,5402,5346,5401,6339,6533,5714
3255,590,628,1714,3756,777,4606,6534,6437,4529,4607
3256,3648,3776,3669,3811,4862,4921,5109,5799,6458,6456
3257,1672,3790,1787,3850,6244,4266,2360,6243,4268,4197
3258,2809,3740,3653,3871,5199,5198,4794,5870,5390,5869
3259,3667,3698,3631,3750,4233,4981,6535,6514,6515,5018
3260,2704,2771,3739,3892,3307,6536,6537,6538,4907,6539
3261,3719,3796,3651,3868,6396,4147,4117,4121,6194,4120
3262,3636,3749,3657,3884,5925,6083,6082,5914,6387,6540
3263,3664,3757,1167,3818,5057,5135,5158,5117,5118,6313
3264,1763,3755,3759,3889,6541,5630,6213,6542,6544,6543
3265,1576,590,1714,3756,6545,6534,1911,6546,6437,4607
3266,691,612,3741,3783,1037,5561,4891,5762,5910,5763
3267,1125,3661,1147,3843,6547,6284,1467,6548,6289,6287
3268,3673,3845,1153,3911,6136,6135,6137,6479,6550,6549
3269,1610,1613,1669,3709,2226,2229,2228,4366,4367,6551
3270,3655,3716,3830,3850,5111,4168,5924,5771,5539,6552
3271,3629,3841,3693,3886,4874,6488,6553,6398,6347,5697
3272,668,3714,3662,3852,6156,6272,6505,6378,6379,5186
3273,3630,3776,3669,3908,5402,4921,6455,6554,4922,4923
3274,2676,2728,3836,3860,3464,6555,5403,4596,6556,5405
3275,3637,3788,1763,3889,5891,6321,6131,5838,6383,6542
3276,1700,3787,3639,3794,6557,5790,5644,5647,5792,5461
3277,3680,3736,3669,3908,6118,6117,6119,6375,6558,4923
3278,1763,3755,1605,3759,6541,5569,2201,6213,5630,4875
3279,3700,3825,1152,3845,6559,6560,6561,6414,6563,6562
3280,680,677,3784,3858,1018,6564,6517,6384,6565,6516
3281,1680,1701,3662,3852,2471,5654,5653,5080,6566,5186
3282,3613,3803,3751,3895,4263,6331,4331,4911,6359,4752
3283,1641,1643,1668,3710,2375,2378,2377,6567,4545,5416
3284,1626,1624,1751,3817,2295,2297,2296,4697,5003,4060
3285,3717,3766,3649,3898,5317,4415,5437,5658,5659,6463
3286,1772,1672,3850,3874,2527,6243,6568,6569,6245,6176
3287,3620,3778,3721,3877,5707,5671,5706,6570,6045,6043
3288,3624,3718,3717,3742,6571,5027,6572,6573,5048,5049
3289,1649,1650,1651,3699,2409,2415,2414,6205,5964,4547
3290,2756,3724,3703,3843,6161,5863,6160,6574,6576,6575
3291,3717,3718,3624,3744,5027,6571,6572,5053,5054,6577
3292,2811,3706,2813,3871,6578,5740,3173,6579,5632,5741
3293,2627,2625,2626,3702,3226,3221,3227,5579,4355,4395
3294,379,3657,360,3851,6173,6368,458,6431,5977,6494
3295,1777,3803,3675,3842,5235,5236,5028,6580,4884,4792
3296,3668,3627,3738,3909,5295,5188,4339,3994,4165,6532
3297,2715,2651,3819,3904,3353,6581,5296,5298,6582,5249
3298,3690,3704,3612,3740,4553,4496,5129,3978,4554,5070
3299,3661,3748,3629,3857,5216,4474,6583,6491,4477,4478
3300,1700,1771,3787,3794,2176,6325,6557,5647,6326,5792
3301,1618,1620,1619,3842,2266,2265,2261,4790,5959,6336
3302,1645,1644,1646,3704,2386,2391,2390,6453,5059,5444
3303,613,678,664,3805,1040,916,1043,6584,5395,5396
3304,605,657,622,3708,1005,1004,810,3983,4012,5713
3305,3621,3712,3813,3836,4908,6585,4468,4383,4802,6586
3306,1130,1150,3777,3828,1416,5927,6404,6405,4327,5928
3307,1089,1735,1122,3891,6587,6588,1234,6589,6591,6590
3308,3634,3763,3681,3882,5252,5280,6058,4435,5281,5144
3309,3629,3724,3703,3886,6448,5863,6592,6398,5868,5866
3310,1639,1640,1641,3710,2361,2367,2366,4179,5374,6567
3311,613,664,3671,3805,1043,5474,6001,6584,5396,4252
3312,3679,3735,3634,3763,6593,5675,3995,5253,6594,5252
3313,2646,2645,2644,3840,3317,3314,3318,5165,5335,4506
3314,1640,1642,1641,3710,2372,2371,2367,5374,4940,6567
3315,3670,3819,2651,3904,6454,6581,6595,6265,5249,6582
3316,3638,3770,3671,3897,4956,5473,4140,5491,5940,5492
3317,2620,2782,2623,3707,3209,3208,2876,5170,5611,5610
3318,3717,3744,3649,3912,5053,6596,5437,6100,6144,5918
3319,1797,3775,3722,3847,6482,5412,6597,6483,6484,4159
3320,3735,3763,3679,3890,6594,5253,6593,6598,5472,6337
3321,1132,3664,1167,3818,5724,5158,1525,5727,5117,6313
3322,1606,1605,3755,3893,2162,5569,6599,6600,4827,5570
3323,1687,3821,3771,3884,5187,6145,5265,6601,6603,6602
3324,1678,3771,3831,3884,6604,6005,6354,6355,6602,5915
3325,1580,1122,1735,3891,6605,6588,1972,6606,6590,6591
3326,592,624,2613,3844,889,6607,6608,6609,6611,6610
3327,2633,3778,2778,3876,6612,5274,3258,6613,5711,5710
3328,3643,3758,3778,3876,5384,5386,5273,5336,4400,5711
3329,3663,3667,3620,3877,6440,5365,6441,6614,6615,6570
3330,3656,3692,3797,3833,4051,4074,4075,6444,5809,5211
3331,3647,3759,3785,3807,5084,6616,4282,4510,5087,6402
3332,2662,3746,3690,3894,5152,5163,5128,6617,6618,4046
3333,3654,3616,3737,3871,5778,6027,6619,5631,5528,5688
3334,1641,1642,1643,3710,2371,2376,2375,6567,4940,4545
3335,2712,3776,2711,3810,5380,4861,3595,5383,4865,4864
3336,3706,3737,3654,3849,5738,6619,5617,5765,5766,6208
3337,3626,3808,3745,3881,6620,6298,6621,6622,6187,6301
3338,2751,1132,3664,3806,5725,5724,5723,6623,6624,4784
3339,1681,3678,1758,3820,6625,4816,2423,5005,4817,4818
3340,2598,2721,2773,3822,2885,3100,3099,6277,5343,4746
3341,1704,1112,1599,3816,6626,6627,1957,6628,6630,6629
3342,2751,2797,3664,3818,3602,6631,5723,5726,6632,5117
3343,3615,3733,3689,3856,4602,6633,4706,4603,4604,6432
3344,1683,1715,3795,3809,2365,6634,4726,5662,6635,5664
3345,601,649,686,3761,982,985,984,5174,5503,5504
3346,1681,1717,3678,3770,2562,4959,6625,4957,5371,5398
3347,1758,1681,1717,3678,2423,2562,2159,4816,6625,4959
3348,3637,3761,3707,3855,5505,5175,5525,6636,5828,5148
3349,1125,1147,3661,3859,1467,6284,6547,6637,6424,6425
3350,3673,3793,2816,3901,6477,4432,6478,6638,6640,6639
3351,1648,1711,1681,3770,2402,2413,2412,4955,6064,4957
3352,3724,3773,2648,3885,5481,6641,6642,6423,6644,6643
3353,1694,1656,3684,3856,2440,6278,5065,6645,6259,4276
3354,3621,3813,3733,3836,4468,5316,5176,4383,6586,6646
3355,1168,1167,1138,3757,1526,1473,1462,6312,5135,6022
3356,3695,3703,1173,3792,6647,6648,6649,6650,6652,6651
3357,3647,3785,3759,3855,4282,6616,5084,4978,4979,6653
3358,3659,3846,3766,3898,6654,6461,6655,6656,6464,5659
3359,3616,3653,3871,3899,6657,5869,5528,4739,6658,5634
3360,1784,1639,1641,3710,2368,2366,2369,4463,4179,6567
3361,1170,3695,1173,3792,6659,6649,1511,6502,6650,6651
3362,3654,1794,3854,3899,4847,5258,5555,5635,6400,5022
3363,618,2623,2614,3707,5609,2879,6660,5523,5610,6661
3364,2681,3680,2680,3908,6662,4666,3487,6663,6375,6376
3365,1166,3752,1089,3891,6352,6664,1450,5949,6353,6589
3366,3646,3813,3712,3836,6665,6585,6666,6667,6586,4802
3367,2799,3773,3724,3890,6668,5481,6669,6670,5471,6671
3368,3712,3836,2814,3878,4802,6101,6672,6673,6104,6105
3369,2614,597,618,3707,6674,823,6660,6661,6675,5523
3370,1586,3682,1740,3867,6676,5666,1963,6057,5157,6219
3371,669,3678,624,3844,5919,6677,937,6678,6047,6611
3372,1631,1667,1780,3903,2329,2331,2321,6078,4644,4645
3373,1658,1680,3802,3856,2460,5311,6679,6680,4895,5468
3374,3641,3866,3683,3879,5284,5310,6310,4634,5285,4568
3375,2670,2762,3793,3901,3446,6681,6682,5993,6683,6640
3376,2820,2592,483,3810,2863,3948,6684,6685,4244,4245
3377,1626,1751,1684,3766,2296,2307,2306,4696,4057,5318
3378,3649,3846,3624,3898,6462,6686,6687,6463,6464,6688
3379,2674,3665,2672,3860,4689,4456,3453,4756,4757,6689
3380,2642,3698,2640,3799,5730,4231,3299,6474,5434,5433
3381,477,494,3754,3794,583,6520,6226,5488,6016,6228
3382,2735,3671,3853,3909,4248,6690,6691,4249,4083,6692
3383,3626,3685,3747,3752,6693,6365,4778,4764,6351,5358
3384,2736,2613,624,3844,2945,6607,6694,6695,6610,6611
3385,3645,3828,3712,3906,4328,6293,6696,6025,5971,6296
3386,3612,3704,3690,3738,4496,4553,5129,4497,4498,6433
3387,2714,2706,3692,3855,3254,4986,6307,6308,4980,4643
3388,3657,3730,365,3749,5944,6174,6172,6083,6435,6697
3389,3643,3791,3758,3876,4914,6329,5384,5336,5228,4400
3390,592,3723,669,3844,6698,6086,938,6609,6699,6678
3391,3764,3811,3669,3829,5896,6456,6700,4969,5899,6701
3392,3661,3703,3629,3724,6702,6592,6583,6703,5863,6448
3393,3613,3664,3757,3803,5058,5057,4033,4263,6330,4265
3394,3652,3869,3612,3896,6322,5073,6704,6323,5586,4838
3395,2761,2809,3706,3871,3132,5545,4316,6705,5870,5632
3396,3650,3624,3718,3904,6070,6571,5375,5248,6264,5377
3397,3690,3738,3627,3909,6433,5188,4164,3962,6532,4165
3398,3775,3845,3640,3847,6481,6706,6707,6484,6485,5779
3399,1768,1777,1733,3891,2519,2585,2087,6708,5206,6178
3400,3656,3702,3633,3798,4054,4571,3929,4379,6254,6279
3401,2666,3740,2692,3871,5388,6709,3416,5389,5390,6710
3402,3733,3813,3801,3836,5316,6711,5301,6646,6586,6712
3403,3612,3710,3690,3746,4544,6713,5129,5151,6714,5163
3404,2655,3779,2750,3819,6115,5747,3364,6512,5843,5841
3405,1148,3639,3777,3787,5458,5819,6199,5791,5790,6179
3406,2672,2673,2671,3826,3449,3448,3443,6341,4943,4962
3407,3743,3779,3623,3819,6498,5772,4711,6500,5843,6715
3408,2614,3707,2624,3734,6661,5147,3179,6716,5262,4849
3409,2687,2662,3746,3869,3396,5152,6717,6718,5072,5153
3410,2643,2645,3774,3840,3313,6719,4769,4505,5335,4868
3411,3715,3723,3628,3844,6087,6720,5125,6408,6699,4854
3412,1721,1123,1091,3905,6721,1246,6722,6723,6725,6724
3413,1153,3845,3825,3911,6135,6563,6726,6549,6550,6727
3414,2799,2650,3773,3890,3339,5327,6668,6670,5470,5471
3415,3747,3752,3685,3891,5358,6351,6365,5208,6353,5950
3416,3614,3735,3661,3890,4622,5213,6728,5743,6598,6729
3417,1082,2722,1130,3777,6730,6403,1400,6731,6152,6404
3418,1736,1092,3857,3859,6732,6733,6734,6735,6737,6736
3419,2685,3799,2640,3895,6738,5433,3301,6739,4913,5097
3420,1105,3754,1184,3794,6227,5547,1530,5487,6228,5459
3421,2686,3763,2650,3890,6740,5324,3349,6741,5472,5470
3422,1669,1774,1773,3709,2512,2514,2511,6551,4535,5035
3423,1785,3781,1578,3838,6111,6742,2077,5638,6112,6743
3424,2684,2628,2630,3797,3242,3232,3243,6744,4073,4353
3425,2710,3776,3644,3861,5509,5346,5807,5510,5351,5349
3426,1115,1771,1096,3787,6745,6324,1306,6746,6325,5978
3427,2595,3683,2734,3879,5011,5536,3087,6747,4568,4632
3428,1092,3661,1125,3857,6748,6547,1466,6733,6491,6749
3429,1177,3657,1179,3851,6290,5943,1528,6268,5977,6399
3430,1586,1773,3682,3867,2118,5033,6676,6057,4446,5157
3431,1721,3695,1123,3905,6750,6751,6721,6723,6752,6725
3432,3618,3698,3677,3817,4227,6753,4438,4377,6754,4442
3433,3701,3746,2658,3894,5266,4730,3914,6755,6618,6756
3434,1675,3775,1796,3854,4585,5314,2540,4577,4970,5259
3435,3670,3711,3624,3773,6757,6758,6068,5328,5627,6759
3436,597,650,3707,3734,963,6164,6675,6760,6034,5262
3437,1122,3726,1166,3891,6761,5982,1451,6590,5984,5949
3438,3670,3804,3650,3880,6762,4937,6069,6072,6162,6060
3439,3624,3711,3670,3880,6758,6757,6068,6071,6763,6072
3440,2727,3826,3723,3844,5483,6334,6764,5484,5139,6699
3441,1108,1156,1159,3716,1543,1424,1542,4336,5717,5429
3442,1761,1727,3742,3898,2107,6765,6766,6767,6769,6768
3443,2641,3698,2643,3774,4982,4226,3303,4899,4768,4769
3444,3637,3785,3759,3807,6446,6616,6212,6134,6402,5087
3445,3720,3765,1755,3800,5643,6770,6771,5232,4453,6772
3446,1700,3764,3639,3787,6256,6215,5644,6557,5041,5790
3447,3641,3779,3676,3866,4630,5748,6773,5284,6089,6090
3448,1611,1695,3759,3771,2215,6204,4569,4344,6774,4039
3449,2678,2696,2724,3836,3473,3485,3484,4384,6775,4392
3450,1091,1590,1721,3905,6776,1984,6722,6724,6777,6723
3451,3612,3690,3710,3738,5129,6713,4544,4497,6433,4546
3452,1168,3818,3757,3905,6106,5118,6312,6109,6110,5908
3453,1165,3752,3685,3808,6778,6351,6779,6780,5894,5956
3454,3663,3721,2607,3877,5322,5581,4991,6614,6043,6781
3455,3641,3795,3701,3879,4724,5014,6530,4634,6782,6283
3456,1736,1737,3661,3857,2122,5511,6783,6734,5379,6491
3457,2783,2782,3761,3855,3210,5612,6509,6511,5827,5828
3458,686,611,3761,3788,1034,5553,5504,6382,6348,6349
3459,3717,3742,1727,3898,5049,6765,6784,5658,6768,6769
3460,624,3678,3805,3844,6677,6386,6785,6611,6047,4112
3461,2702,2750,2655,3779,3374,3364,3372,5722,5747,6115
3462,3631,3698,3667,3892,4981,4233,6535,4902,4682,4683
3463,2774,3663,2607,3877,6786,4991,3147,6787,6614,6781
3464,1704,3694,1112,3816,6788,6789,6626,6628,5098,6630
3465,3707,3755,3637,3759,6165,6790,5525,6791,5630,6212
3466,2697,2785,2684,3797,3510,3509,3250,5413,4221,6744
3467,1165,3685,1099,3808,6779,5796,1503,6780,5956,5957
3468,1753,3720,1755,3800,5935,6771,2128,5936,5232,6772
3469,3628,3820,3678,3844,5126,4817,5399,4854,5507,6047
3470,1785,1786,1578,3781,2079,2076,2077,6111,6280,6742
3471,3683,3795,3641,3879,6792,4724,6310,4568,6782,4634
3472,1737,3661,1783,3859,5511,5214,2588,6793,6425,6794
3473,3655,3672,3830,3882,5770,3918,5924,6189,5142,6225
3474,359,3788,1764,3807,6319,6239,6795,6320,6167,6132
3475,1796,1712,1794,3865,2096,2150,2544,5260,4930,4848
3476,3661,3735,1783,3859,5213,5212,5214,6425,6796,6794
3477,3759,3785,3637,3855,6616,6446,6212,6653,4979,6636
3478,2634,3658,3786,3881,5093,6797,6798,6799,6801,6800
3479,1621,1623,1666,3750,2279,2282,2281,5045,6315,4759
3480,3715,3868,1694,3873,6802,5066,6803,5089,5067,5068
3481,1669,1750,1774,3709,2244,2513,2512,6551,4534,4535
3482,1602,3789,475,3794,5937,6459,6804,5938,5648,6460
3483,373,380,3761,3788,454,5930,5552,6350,5890,6349
3484,3718,3744,2780,3904,5054,6805,6806,5377,6808,6807
3485,1638,1639,3674,3795,2357,4176,5306,6809,4253,4254
3486,1761,3742,3880,3898,6766,6061,6810,6767,6768,6811
3487,1725,1788,3731,3812,2579,6812,6813,6814,6816,6815
3488,1634,1696,1731,3804,2334,2147,2345,4588,4938,5243
3489,2790,1178,3754,3777,6817,6818,6819,6820,6821,5818
3490,1648,1650,1649,3699,2410,2409,2405,5269,5964,6205
3491,1103,1132,1167,3818,1337,1525,1524,6054,5727,6313
3492,1759,3791,1754,3823,4915,6222,2082,4638,5363,6063
3493,1581,3666,598,3858,4237,4199,4236,6822,4114,6823
3494,3623,3743,3650,3804,4711,4935,6824,4518,4939,4937
3495,2652,2651,2650,3670,3346,3343,3347,5597,6595,5326
3496,1598,1098,1703,3787,6825,4022,2041,6826,4027,4025
3497,2614,597,3707,3734,6674,6675,6661,6716,6760,5262
3498,3690,3746,3710,3894,5163,6714,6713,4046,6618,6827
3499,1115,1598,1771,3787,6828,2044,6745,6746,6826,6325
3500,3666,3739,675,3784,5075,5076,4704,6829,6831,6830
3501,2656,3701,2657,3779,3928,6282,3371,4448,4449,5452
3502,3634,3655,3769,3882,6221,5113,3998,4435,6189,4437
3503,2818,3836,3713,3837,6102,6832,6833,6834,6836,6835
3504,2672,3665,2673,3826,4456,4942,3449,6341,4694,4943
3505,3625,3738,3668,3756,4700,4339,4095,4688,4185,4301
3506,2810,2812,2722,3828,3558,3120,3198,5967,6294,6153
3507,1148,3754,1178,3777,5546,6818,1419,6199,5818,6821
3508,2709,3908,3776,3913,6837,4922,5540,5542,6838,5544
3509,1142,3657,1177,3816,6049,6290,1485,6839,5973,6266
3510,613,3671,2737,3805,6001,6002,5999,6584,4252,6840
3511,2713,3772,3651,3826,5857,5856,5577,6333,4693,6332
3512,677,3666,675,3784,6841,4704,971,6564,6829,6830
3513,665,628,666,3756,1053,927,1068,4217,4529,5573
3514,3651,3868,3715,3873,4120,6802,6842,5145,5067,5089
3515,2722,1082,2617,3777,6730,6843,3060,6152,6731,6844
3516,1171,1157,1080,3729,1409,1408,1405,5619,5681,4270
3517,364,360,365,3821,437,456,455,6845,6369,6370
3518,1128,3700,1152,3845,6126,6561,1410,6413,6414,6562
3519,3630,3864,3708,3883,6339,5715,5676,6357,5850,4481
3520,2595,2729,3683,3879,3085,4333,5011,6747,3975,4568
3521,1167,1169,1093,3726,1474,1471,1472,5133,6416,5134
3522,623,669,617,3678,1057,1056,792,4844,5919,4846
3523,1095,1599,1112,3816,6846,6627,1219,6847,6629,6630
3524,2648,3659,3773,3846,6848,5480,6641,6849,6654,6850
3525,1157,1141,1154,3706,1536,1427,1572,5680,4317,5354
3526,670,679,3676,3832,951,6851,6852,5517,6854,6853
3527,2820,483,472,3810,6684,523,6855,6685,4245,6856
3528,1754,3791,1608,3893,6222,6857,2209,6858,6860,6859
3529,3649,3774,3666,3784,5292,5293,4414,5917,6451,6829
3530,3698,3750,3677,3817,6515,4761,6753,6754,5419,4442
3531,367,3785,3637,3807,6445,6446,5887,6166,6402,6134
3532,3655,3731,3716,3850,4191,5432,5111,5771,5538,5539
3533,1166,3685,1165,3752,5948,6779,1454,6352,6351,6778
3534,3661,3735,3614,3748,5213,4622,6728,5216,5008,5009
3535,2746,2780,3744,3904,3127,6805,6861,6862,6807,6808
3536,1615,1617,1670,3747,2250,2253,2252,3925,4005,6501
3537,1772,3850,3655,3874,6568,5771,6863,6569,6176,6175
3538,663,3809,644,3832,5446,6864,930,5448,5447,6865
3539,2684,3797,2630,3833,6744,4353,3243,6866,5211,5862
3540,2813,3737,2763,3871,5739,5689,3562,5741,5688,5497
3541,2666,3705,2664,3740,5387,3959,3415,5388,3979,3977
3542,3736,3669,3811,3829,6117,6456,6529,5428,6701,5899
3543,1763,3759,3637,3889,6213,6212,6131,6542,6543,5838
3544,3655,3781,1772,3874,4071,6867,6863,6175,6113,6569
3545,1791,3764,1679,3787,4965,5884,2536,4501,5041,6868
3546,1122,1166,1089,3891,1451,1450,1234,6590,5949,6589
3547,3701,3710,3622,3746,5012,4178,4008,5266,6714,4729
3548,664,587,647,3770,914,786,915,5394,5370,5652
3549,3656,3771,3692,3833,4038,6273,4051,6444,6497,5809
3550,2665,2667,2730,3705,3419,3422,3421,4079,4149,4144
3551,673,3686,672,3721,6214,5191,961,5220,5673,6869
3552,672,3721,3686,3824,6869,5673,5191,5193,5674,5192
3553,1080,1116,1171,3865,1282,1406,1405,4274,5103,6870
3554,1125,3843,3703,3857,6548,6575,6871,6749,6873,6872
3555,2648,2647,2646,3659,3327,3323,3328,6848,6875,6874
3556,3647,3821,3749,3884,4493,6229,4213,6388,6603,6387
3557,3654,3737,3706,3871,6619,5738,5617,5631,5688,5632
3558,2652,3670,3763,3870,5597,5325,5598,6876,6877,5279
3559,1152,3825,1153,3845,6560,6726,1567,6562,6563,6135
3560,1148,1184,1178,3754,1488,1532,1419,5546,5547,6818
3561,3661,3735,3679,3890,5213,6593,6285,6729,6598,6337
3562,2648,2647,3659,3846,3327,6875,6848,6849,6878,6654
3563,663,644,670,3832,930,1066,1078,5448,6865,5517
3564,3731,3812,1788,3875,6815,6816,6812,5861,6880,6879
3565,3648,3789,3780,3839,4207,6881,4321,3939,4647,4323
3566,2698,2717,2682,3780,3504,3501,3502,6524,5124,6525
3567,2696,3712,2724,3836,6882,4803,3485,6775,4802,4392
3568,596,673,629,3686,958,957,741,5592,6214,5594
3569,2634,3782,3658,3881,5340,5339,5093,6799,6439,6801
3570,372,3761,367,3785,6883,5931,442,6884,6447,6445
3571,3612,3740,3653,3869,5070,5198,5719,5073,5074,5200
3572,2751,2753,2797,3818,2997,3603,3602,5726,6030,6632
3573,3629,3748,3659,3910,4474,5477,6450,6885,5987,6886
3574,3791,3798,1608,3893,4783,6887,6857,6860,4380,6859
3575,1680,1701,1660,3802,2471,2470,2459,5311,5655,6888
3576,482,3762,3644,3810,6340,5996,5238,5859,4358,5382
3577,1606,3755,3834,3893,6599,6311,6889,6600,5570,6890
3578,2654,3672,3870,3882,4857,4858,4859,6891,5142,5143
3579,364,1603,360,3821,6892,6493,437,6845,6504,6369
3580,3756,3795,1710,3809,5392,4486,4687,6467,5664,6893
3581,1736,3857,3661,3859,6734,6491,6783,6735,6736,6425
3582,3629,3885,3724,3886,6449,6423,6448,6398,6894,5868
3583,1795,3801,3813,3900,6895,6711,6896,6897,6899,6898
3584,1699,1700,3764,3789,2194,6256,6900,6901,5646,6257
3585,3629,3767,3748,3910,4742,5323,4474,6885,5989,5987
3586,3700,3845,1798,3847,6414,6902,6903,6904,6485,6905
3587,3693,3767,3629,3885,5352,4742,6553,4933,5333,6449
3588,3659,3629,3767,3885,6450,4742,5331,5334,6449,5333
3589,3661,3629,3703,3857,6583,6592,6702,6491,4478,6872
3590,1131,1134,1741,3900,1297,6906,6907,6908,6910,6909
3591,1592,1731,1696,3848,2148,2147,2145,4654,5064,4424
3592,2709,2683,3776,3908,3499,6911,5540,6837,6912,4922
3593,1179,3657,3730,3851,5943,5944,5945,6399,5977,5923
3594,1098,1598,1115,3787,6825,6828,1303,4027,6826,6746
3595,2696,2814,3712,3836,3570,6672,6882,6775,6101,4802
3596,1131,1741,1583,3900,6907,2035,6202,6908,6909,6913
3597,3775,3793,3673,3901,6914,6477,6915,6916,6640,6638
3598,1773,1669,3709,3887,2511,6551,5035,4598,6917,4928
3599,3675,3803,3751,3842,5236,6331,6918,4792,4884,6919
3600,480,3639,3789,3839,6013,5645,6318,6920,5821,4647
3601,1755,3765,1618,3800,6770,4125,2268,6772,4453,4451
3602,3624,3717,3649,3898,6572,5437,6687,6688,5658,6463
3603,3710,3746,3701,3894,6714,5266,5012,6827,6618,6755
3604,1131,1583,3696,3900,6202,6203,6201,6908,6913,6010
3605,2756,2801,2789,3724,3609,3543,3143,6161,6921,5864
3606,1687,1689,1695,3759,2056,2573,2235,5083,6240,6204
3607,1766,1678,1665,3831,2490,2232,2491,5691,6354,5793
3608,2731,1117,3673,3849,6235,6236,6232,6922,6924,6923
3609,1172,1163,3769,3781,1444,4961,6362,6360,6419,6361
3610,1135,1151,1088,3682,1449,1448,1228,5603,5852,5661
3611,2635,2775,3778,3877,3276,5835,5359,6925,6044,6045
3612,3617,3793,3775,3901,4881,6914,4587,6926,6640,6916
3613,1151,3752,1165,3808,5853,6778,1506,5893,5894,6780
3614,3652,3612,3746,3812,6704,5151,4014,6487,6928,6927
3615,678,587,664,3770,913,914,916,5393,5370,5394
3616,1799,3801,1795,3900,6929,6895,2554,6930,6899,6897
3617,2776,3822,2778,3824,6931,5881,3103,6932,5883,5277
3618,1667,1746,1785,3735,2341,2501,2500,4621,5438,5628
3619,1687,3759,1695,3771,5083,6204,2235,5265,4039,6774
3620,1125,3661,1092,3859,6547,6748,1466,6637,6425,6737
3621,3661,3857,1092,3859,6491,6733,6748,6425,6736,6737
3622,2685,2642,2640,3799,3300,3299,3301,6738,6474,5433
3623,3732,3778,3658,3876,6358,5092,4187,5227,5711,5530
3624,3623,3819,3779,3870,6715,5843,5772,5496,6513,4860
3625,359,367,380,3788,449,452,451,6319,5889,5890
3626,2631,2627,3702,3758,3237,5579,4540,4396,6521,4242
3627,2769,3745,2793,3881,6933,6300,3531,6934,6301,6302
3628,1789,1790,3863,3896,2114,6935,6936,6937,6939,6938
3629,2651,3670,2653,3819,6595,6940,3351,6581,6454,6941
3630,1602,479,475,3789,6942,552,6804,5937,6943,6459
3631,1789,3863,3691,3896,6936,6944,6945,6937,6938,5585
3632,3658,3778,2634,3876,5092,5091,5093,5530,5711,6946
3633,472,487,2712,3810,520,6430,6947,6856,6411,5383
3634,1736,1092,1587,3857,6732,6948,1990,6734,6733,6949
3635,3611,3758,3791,3876,6489,6329,4522,5226,4400,5228
3636,3630,3736,3680,3908,6950,6118,6951,6554,6558,6375
3637,3622,3652,3746,3812,5233,4014,4729,4773,6487,6927
3638,1778,3726,1733,3803,6406,6952,2583,5768,6407,6177
3639,3641,3743,3676,3779,4723,6499,6773,4630,6498,5748
3640,2794,2793,2616,3808,3193,3192,3189,6183,6299,5955
3641,2617,1082,2790,3777,6843,6953,3063,6844,6731,6820
3642,3613,3664,3803,3895,5058,6330,4263,4911,4786,6359
3643,3673,3793,3640,3911,6477,4434,6954,6479,5760,5761
3644,3769,3781,3634,3838,6361,6955,3998,3991,6112,4151
3645,3731,3812,3652,3850,6815,6487,5430,5538,5130,5537
3646,3625,3795,3683,3879,4485,6792,6192,4094,6782,4568
3647,3825,3845,3640,3911,6563,6706,5000,6727,6550,5761
3648,1728,1798,3700,3845,2166,6903,6125,6412,6902,6414
3649,1681,3770,3678,3820,4957,5398,6625,5005,5257,4817
3650,3623,3650,3743,3819,6824,4935,4711,6715,5247,6500
3651,3774,3784,3649,3840,6451,5917,5292,4868,5752,5916
3652,1651,1653,3722,3727,2424,4362,4615,4713,4363,4364
3653,1700,1699,1602,3789,2194,2193,2195,5646,6901,5937
3654,1132,1169,3664,3806,1517,6415,5724,6624,6956,4784
3655,1092,1124,1587,3857,1252,6957,6948,6733,6958,6949
3656,624,3678,678,3805,6677,6385,1041,6785,6386,5395
3657,1576,590,3756,3809,6545,6437,6546,6959,6466,6467
3658,3635,3751,3675,3803,5204,6918,5029,5234,6331,5236
3659,2743,2807,2744,3716,3596,3598,3162,4337,4799,4166
3660,3659,2648,3773,3885,6848,6641,5480,5334,6643,6644
3661,3696,3813,1793,3829,6960,6961,4259,5425,4591,5160
3662,3712,3813,3696,3829,6585,6960,6962,6963,4591,5425
3663,3675,3782,3658,3835,6964,5339,4188,6391,5341,5095
3664,679,3676,3832,3848,6851,6853,6854,6965,6967,6966
3665,2629,3702,2628,3728,4541,4053,3236,5407,4403,4401
3666,3652,3691,3753,3869,5519,5521,4078,6322,5582,5563
3667,2790,1082,1178,3777,6953,1403,6817,6820,6731,6821
3668,359,1764,366,3807,6795,6968,428,6320,6132,6969
3669,1775,3752,3747,3891,4763,5358,4779,6970,6353,5208
3670,2704,2641,2771,3892,3296,3305,3307,6538,4900,4907
3671,3638,3805,3678,3844,4102,6386,6046,4234,4112,6047
3672,3626,3747,3685,3881,4778,6365,6693,6622,6367,6186
3673,1787,1639,1784,3850,2359,2368,2370,4197,4195,4712
3674,369,358,368,3749,446,411,448,4455,5826,4212
3675,1708,3715,1694,3873,6237,6803,2442,6238,5089,5068
3676,1788,3691,3875,3896,6971,5812,6879,6972,5585,6973
3677,3659,3766,3618,3767,6655,4375,5330,5331,5202,4611
3678,2769,3786,3745,3881,6974,6975,6933,6934,6800,6301
3679,3623,3674,3672,3779,4987,5531,5495,5772,5549,4450
3680,2751,3664,2752,3806,5723,5042,3105,6623,4784,4750
3681,1736,3661,1737,3859,6783,5511,2122,6735,6425,6793
3682,1790,3729,3814,3899,6976,6977,6978,6979,6154,5875
3683,1790,3814,3729,3863,6978,6977,6976,6935,6980,5601
3684,1655,1676,3722,3847,2436,6981,4139,4157,6982,4159
3685,1774,1597,1740,3682,2172,1966,2173,4974,5604,5666
3686,2648,3659,2646,3885,6848,6874,3328,6643,5334,5166
3687,3711,3748,3614,3903,5625,5009,5737,6079,5263,4646
3688,3724,3843,2756,3890,6576,6574,6161,6671,6984,6983
3689,1726,3717,1684,3858,6985,5319,2567,6986,5320,5321
3690,2672,2670,2762,3793,3444,3446,3445,6987,6682,6681
3691,2646,3659,2647,3840,6874,6875,3323,5165,5808,6988
3692,674,3739,3720,3902,6508,5077,6148,6246,6989,6247
3693,1789,3691,1788,3896,6945,6971,2509,6937,5585,6972
3694,3656,1609,3831,3887,5219,5735,5736,6990,6991,4599
3695,3612,3653,3740,3814,5719,5198,5070,6992,6994,6993
3696,3653,3616,3740,3814,6657,5526,5198,6994,6995,6993
3697,3665,3697,3617,3727,4460,4879,4880,5156,6996,4714
3698,3663,3620,3765,3800,6441,4126,6442,5291,4452,4453
3699,1679,3764,1700,3787,5884,6256,2558,6868,5041,6557
3700,2638,3667,2639,3835,6055,5361,3285,6997,6999,6998
3701,661,664,647,3688,1079,915,1054,6269,5650,5649
3702,1094,1179,3725,3730,1478,5942,7000,7001,5945,5946
3703,1740,1586,1773,3682,1963,2118,2117,5666,6676,5033
3704,2635,3778,3835,3877,5359,5096,5360,6925,6045,7002
3705,1725,3812,3731,3850,6814,6815,6813,7003,5130,5538
3706,3696,3828,1161,3878,4348,7004,6009,6007,7005,6008
3707,3619,3760,3694,3797,4664,4294,5467,4733,4222,6486
3708,1723,1585,1109,3691,2011,7006,7007,7008,7010,7009
3709,1723,1109,1121,3691,7007,1273,7011,7008,7009,7012
3710,1733,3803,3726,3891,6177,6407,6952,6178,5556,5984
3711,3625,3756,3683,3795,4688,5574,6192,4485,5392,6792
3712,3657,3749,365,3821,6083,6697,6172,6371,6229,6370
3713,1142,3725,3657,3816,6050,5941,6049,6839,5100,5973
3714,2795,2640,3751,3895,3290,4329,7013,7014,5097,4752
3715,2706,2708,2593,3785,3076,3075,3074,4977,6260,4281
3716,3657,3821,1603,3884,6371,6504,6492,6540,6603,7015
3717,3659,3773,3724,3885,5480,5481,5479,5334,6644,6423
3718,630,1748,598,3858,7016,7017,753,7018,7019,6823
3719,3614,3735,3681,3903,4622,5439,7020,4646,4951,6507
3720,1651,1653,1743,3722,2424,2427,2426,4615,4362,4617
3721,2724,2696,2814,3712,3485,3570,3569,4803,6882,6672
3722,2727,2713,3723,3826,3461,5578,6764,5483,6333,6334
3723,364,1800,1603,3821,7021,1834,6892,6845,7022,6504
3724,1143,3694,1175,3760,4292,7023,1458,4293,4294,7024
3725,3629,3659,3767,3910,6450,5331,4742,6885,6886,5989
3726,591,665,627,3668,933,932,877,5466,4300,4341
3727,1776,1666,1778,3803,2283,2498,2497,5299,4264,5768
3728,3615,3772,3684,3856,4592,6465,4136,4603,6242,4276
3729,3628,3697,3665,3727,4851,4460,5851,7025,6996,5156
3730,3671,3688,661,3853,5687,6269,6468,6690,6171,6270
3731,1159,1158,1120,3753,1561,1426,1541,5462,5901,4077
3732,1084,1158,1154,3753,1425,1429,1428,4156,5901,5682
3733,3628,3651,3715,3873,7026,6842,5125,5127,5145,5089
3734,592,669,624,3844,938,937,889,6609,6678,6611
3735,3687,3708,3644,3861,3984,4624,5348,5350,5744,5349
3736,2660,2658,3746,3894,3386,4730,7027,7028,6756,6618
3737,3616,3704,3814,3899,4840,5874,6995,4739,4841,5875
3738,2710,2711,2712,3776,3507,3595,3205,5509,4861,5380
3739,2792,3760,2605,3827,4662,7029,3136,5015,5016,7030
3740,1166,3726,1169,3806,5982,6416,1521,5947,5983,6956
3741,1169,1167,1132,3664,1474,1525,1517,6415,5158,5724
3742,3666,3774,3618,3817,5293,4767,4376,4059,7031,4377
3743,3683,3795,3756,3809,6792,5392,5574,5839,5664,6467
3744,1131,1741,251,1583,6907,2030,1295,6202,2035,2034
3745,1662,1664,3811,3883,2478,6080,7032,7033,5849,6081
3746,3681,3735,3614,3763,5439,4622,7020,5280,6594,5742
3747,3614,3763,3735,3890,5742,6594,4622,5743,5472,6598
3748,1622,3750,1620,3765,5019,7034,2275,4806,5020,5958
3749,3702,3798,3660,3893,6254,6255,4877,7035,4380,7036
3750,2813,3737,3849,3901,5739,5766,5764,7037,5995,7038
3751,1084,311,2604,1141,1368,3029,3965,1373,1372,3964
3752,2761,2604,311,1141,3033,3029,3031,3969,3964,1372
3753,1128,1596,249,1081,6123,2028,1287,1291,6128,1289
3754,1596,1128,249,1728,6123,1287,2028,2029,6124,2024
3755,1116,1080,246,1593,1282,1278,1280,5102,4269,2015
3756,1741,1131,251,1134,6907,1295,2030,6906,1297,1293
3757,1712,1116,246,1593,5104,1280,2019,2020,5102,2015
3758,314,2601,2731,1085,3040,3042,3038,1381,6231,6230
3759,1085,2731,314,1117,6230,3038,1381,1382,6235,1377
3760,3614,3670,3773,3903,6168,5328,5596,4646,7040,7039
3761,1170,3695,3792,3905,6659,6650,6502,6503,6752,6108
3762,2783,3785,2782,3855,6510,7041,3210,6511,4979,5827
3763,2799,2648,3724,3773,3340,6642,6669,6668,6641,5481
3764,3650,3742,3624,3880,4410,6573,6070,6060,6061,6071
3765,1109,1723,243,1585,7007,2006,1271,7006,2011,2010
3766,1723,1109,243,1121,7007,1271,2006,7011,1273,1269
3767,1748,1581,598,3858,1887,4236,7017,7019,6822,6823
3768,1133,3685,1166,3806,5798,5948,1520,6306,5589,5947
3769,3711,3773,3670,3903,5627,5328,6757,6079,7039,7040
3770,2766,3693,2642,3799,5696,5729,3311,5161,5695,6474
3771,1763,3759,1689,3807,6213,6240,2574,6133,5087,6241
3772,2698,3780,3669,3906,6524,4920,6523,7042,6042,7043
3773,1694,1706,1656,3856,2061,2451,2440,6645,5044,6259
3774,3698,3774,3631,3817,4768,4898,4981,6754,7031,4653
3775,1788,3691,1789,3875,6971,6945,2509,6879,5812,7044
3776,632,3744,680,3912,5052,6143,1071,7045,6144,6099
3777,3634,3735,3681,3763,5675,5439,6058,5252,6594,5280
3778,1733,1778,1732,3726,2583,2582,2085,6952,6406,5775
3779,96,596,629,1588,736,741,740,1873,5591,5590
3780,1678,3771,1665,3831,6604,6475,2232,6354,6005,5793
3781,1780,1629,1631,3711,2320,2318,2321,6076,7046,6077
3782,3640,3845,3673,3911,6706,6136,6954,5761,6550,6479
3783,3614,3773,3711,3903,5596,5627,5737,4646,7039,6079
3784,3620,3663,3721,3800,6441,5322,5706,4452,5291,5223
3785,1780,1629,3711,3748,2320,7046,6076,5007,7047,5625
3786,379,3730,3657,3851,6122,5944,6173,6431,5923,5977
3787,627,666,615,3683,1049,1048,874,4342,5183,4984
3788,680,3717,631,3858,6097,7048,1069,6384,5320,7049
3789,654,671,636,3742,1022,1002,976,5047,4809,4387
3790,1788,3875,3812,3896,6879,6880,6816,6972,6973,6151
3791,2634,3786,3658,3876,6798,6797,5093,6946,5410,5530
3792,2719,2790,3754,3777,3194,6819,6032,6031,6820,5818
3793,598,99,645,1739,749,745,750,4198,1880,4169
3794,621,3822,658,3823,5880,5963,955,6091,5962,5702
3795,3646,3836,3712,3878,6667,4802,6666,6073,6104,6673
3796,596,96,1729,1588,736,1871,5622,5591,1873,1875
3797,2791,3830,2691,3882,5254,7050,3547,6224,6225,7051
3798,604,1730,104,636,4917,1895,764,765,4388,760
3799,3627,3668,3688,3853,5295,4299,5294,7052,5954,6171
3800,3647,3833,3771,3884,4887,6497,5264,6388,6389,6602
3801,1091,1721,234,1123,6722,1983,1242,1246,6721,1244
3802,2658,2657,2656,3701,3375,3371,3376,3914,6282,3928
3803,616,647,1577,3688,783,6181,7053,4216,5649,6180
3804,2783,3761,372,3785,6509,6883,7054,6510,6447,6884
3805,3713,3836,3646,3837,6832,6667,7055,6835,6836,7056
3806,110,1577,616,647,1915,7053,778,782,6181,783
3807,615,174,2595,646,869,2926,5010,871,867,5423
3808,1637,1636,3674,3790,2347,4988,4425,4426,4660,4267
3809,3632,3651,3719,3796,5789,4117,4893,4973,4147,6396
3810,1173,1125,3703,3857,1564,6871,6648,7057,6749,6872
3811,630,100,598,1748,752,748,753,7016,1885,7017
3812,1120,2743,309,1108,3941,3023,1366,1367,3940,1362
3813,3637,3759,3755,3889,6212,5630,6790,5838,6543,6544
3814,3632,3680,3662,3802,4003,6271,6141,5312,7058,5656
3815,2754,1133,1099,296,5794,1328,5795,2986,1327,1323
3816,2802,2756,3843,3890,3606,6574,7059,7060,6983,6984
3817,1791,1679,1700,3787,2536,2558,2177,4501,6868,6557
3818,3814,3863,1790,3896,6980,6935,6978,5986,6938,6939
3819,2733,175,615,627,2929,870,4983,4340,872,874
3820,590,108,1714,628,772,1909,6534,777,776,4606
3821,3722,3775,3640,3847,5412,6707,5780,4159,6484,5779
3822,639,609,164,2772,841,837,839,5303,5302,2896
3823,600,97,629,1753,743,739,744,5934,1876,5961
3824,309,2742,2743,1120,3025,3027,3023,1366,3945,3941
3825,3633,3702,3660,3893,4571,4877,6163,3972,7035,7036
3826,2707,3749,2784,3833,6372,5636,3216,6429,4889,5614
3827,2637,2638,2639,3835,3279,3285,3284,7061,6997,6998
3828,2751,2599,1132,3806,2994,7062,5725,6623,6344,6624
3829,2725,3714,2741,3796,4793,7063,3083,4971,4972,7064
3830,624,2613,180,592,6607,2944,885,889,6608,887
3831,113,1594,623,617,1924,4843,787,791,4842,792
3832,3659,3624,3846,3898,7065,6686,6654,6656,6688,6464
3833,1803,479,1602,3789,7066,6942,1850,7067,6943,5937
3834,613,178,2737,648,881,2938,5999,883,879,5998
3835,647,111,1718,587,781,1918,6292,786,785,5420
3836,625,2611,3676,3862,6526,6527,6472,7068,7070,7069
3837,1147,3679,1174,3843,6286,6019,1516,6287,6288,6328
3838,2710,2716,3687,3861,3207,7071,5508,5510,7072,5350
3839,1102,1132,2599,3806,1334,7062,6343,6305,6624,6344
3840,642,95,1729,596,733,1870,5829,738,737,5622
3841,176,2732,591,627,2932,5463,875,873,5464,877
3842,109,1713,628,616,1912,4528,775,779,4261,780
3843,3722,3793,3665,3860,6476,4882,5154,5781,6356,4757
3844,1133,1099,1165,3685,1328,1503,1502,5798,5796,6779
3845,3632,3772,3651,3796,4781,5856,5789,4973,5406,4147
3846,614,634,182,2594,895,891,893,4542,4537,2950
3847,3618,3774,3698,3817,4767,4768,4227,4377,7031,6754
3848,3668,3683,3625,3756,4335,6192,4095,4301,5574,4688
3849,93,1579,620,595,1864,4297,727,731,4284,732
3850,1739,598,99,1581,4198,749,1880,1884,4236,1882
3851,1579,1702,93,620,1866,1862,1864,4297,4319,727
3852,2595,2733,175,615,2930,2929,2925,5010,4983,870
3853,1576,108,1714,590,1907,1909,1911,6545,772,6534
3854,1730,604,104,1592,4917,764,1895,1899,4946,1897
3855,2607,164,609,2772,2892,837,4992,2897,2896,5302
3856,1588,629,97,1753,5590,739,1874,1878,5961,1876
3857,234,1590,1721,1091,1979,1984,1983,1242,6776,6722
3858,1652,3820,1758,3873,7073,4818,2421,7074,5090,5088
3859,3645,3712,3696,3829,6696,6962,4091,4968,6963,5425
3860,174,2779,2595,646,2922,2927,2926,867,5493,5423
3861,480,3789,484,3839,6318,4579,560,6920,4647,3937
3862,2797,2752,2751,3664,3601,3105,3602,6631,5042,5723
3863,3653,3616,3814,3899,6657,6995,6994,6658,4739,5875
3864,667,3662,638,3852,6093,4614,1007,6506,5186,5184
3865,2821,357,368,3785,7075,408,7076,7077,7078,4283
3866,95,1729,1757,642,1870,1872,1868,733,5829,5830
3867,227,1586,1740,1113,1958,1963,1962,1221,6216,6217
3868,1686,1757,1729,3686,2572,1872,2571,4869,5832,5623
3869,2798,3818,3799,3895,5732,6142,4584,7079,7080,4913
3870,1113,1740,227,1088,6217,1962,1221,1225,5665,1223
3871,3652,3612,3812,3896,6704,6928,6487,6323,4838,6151
3872,1773,1749,1669,3887,2510,2230,2511,4598,4800,6917
3873,1660,3802,1701,3883,6888,5655,2470,7081,5704,5705
3874,2660,3746,2662,3894,7027,5152,3395,7028,6618,6617
3875,2603,2780,3718,3744,3126,6806,7082,7083,6805,5054
3876,669,678,624,3678,1065,1041,937,5919,6385,6677
3877,1133,1166,1102,3806,1520,1519,1331,6306,5947,6305
3878,2616,2754,1099,296,2988,5795,5845,2984,2986,1323
3879,299,1132,2753,2751,1332,6029,2995,2993,5725,2997
3880,232,1732,1734,1093,1973,1978,1977,1236,5776,6003
3881,1755,3720,1685,3765,6771,5642,2278,6770,5643,4808
3882,2808,2809,2764,3869,3133,3552,3524,6421,5201,5709
3883,1713,616,1577,3688,4261,7053,1917,4260,4216,6180
3884,1168,3757,1138,3905,6312,6022,1462,6109,5908,7084
3885,2599,1132,298,2751,7062,1333,2990,2994,5725,2992
3886,110,1577,1713,616,1915,1917,1913,778,7053,4261
3887,1748,100,598,1581,1885,748,7017,1887,1883,4236
3888,1740,1597,228,1088,1966,1965,1961,5665,5660,1224
3889,1135,228,1597,1088,1226,1965,5602,1228,1224,5660
3890,299,1132,1103,2753,1332,1337,1336,2995,6029,6053
3891,1093,1734,232,1138,6003,1977,1236,1240,6021,1238
3892,2596,2737,178,648,2939,2938,2934,6039,5998,879
3893,1718,1577,111,647,1920,1916,1918,6292,6181,781
3894,3658,3778,3620,3835,5092,5707,5683,5095,5096,6390
3895,1102,1132,298,2599,1334,1333,1329,6343,7062,2990
3896,1647,1649,3699,3768,2404,6205,4736,4828,7085,4830
3897,2738,172,625,594,2920,861,6470,6469,863,865
3898,3703,3724,3661,3843,5863,6703,6702,6575,6576,6289
3899,2629,3728,2688,3786,5407,7086,3248,5409,5408,7087
3900,2732,2733,2701,3668,2933,3582,3583,5465,4332,3963
3901,3626,3752,3682,3808,4764,4976,4975,6620,5894,5892
3902,670,3832,3676,3866,5517,6853,6852,5518,5450,6090
3903,2732,176,2733,627,2932,2928,2933,5464,873,4340
3904,1713,1714,109,628,1914,1910,1912,4528,4606,775
3905,1101,1118,305,2757,1355,1354,1350,4947,4948,3011
3906,1584,1727,3717,3742,2106,6784,7088,7089,6765,5049
3907,3649,3717,3624,3744,5437,6572,6687,6596,5053,6577
3908,623,1717,112,587,4958,1921,788,789,5368,784
3909,2792,2788,2605,3760,3138,3135,3136,4662,4663,7029
3910,359,366,367,3807,428,450,449,6320,6969,6166
3911,2776,606,651,3822,7090,832,7091,6931,7092,6428
3912,2691,2656,2654,3672,3367,3366,3368,7093,3920,4857
3913,2653,3819,3670,3870,6941,6454,6940,7094,6513,6877
3914,3628,3715,3651,3723,5125,6842,7026,6720,6087,4145
3915,1752,3666,1751,3817,4525,4058,2094,4526,4059,4060
3916,2629,2627,2628,3702,3235,3230,3236,4541,5579,4053
3917,2696,2818,2814,3836,3571,3573,3570,6775,6102,6101
3918,1754,3834,3660,3893,7095,4288,6062,6858,6890,7036
3919,1635,1746,3681,3790,2340,5440,4517,4659,7096,4824
3920,160,2721,2598,656,2880,2885,2884,825,5815,6276
3921,3612,3653,3814,3896,5719,6994,6992,4838,5584,5986
3922,2780,2715,3718,3904,3355,5615,6806,6807,5298,5377
3923,2594,634,182,2726,4537,891,2950,2951,4128,2946
3924,3680,3689,3621,3802,4064,4325,4303,7058,7097,4566
3925,3634,3838,3781,3874,4151,6112,6955,5640,5641,6113
3926,3618,3649,3766,3840,4413,4415,4375,4507,5916,7098
3927,3673,3775,3640,3793,6915,6707,6954,6477,6914,4434
3928,118,638,605,1589,802,807,806,1939,4613,4034
3929,2653,3670,2651,3870,6940,6595,3351,7094,6877,7099
3930,2757,1118,305,2597,4948,1354,3011,3015,4020,3013
3931,596,642,672,3686,738,960,959,5592,5831,5191
3932,3618,3693,3677,3698,4346,7100,4438,4227,4347,6753
3933,3650,3718,3624,3742,5375,6571,6070,4410,5048,6573
3934,2633,2705,2778,3778,3266,3268,3258,6612,5564,5274
3935,3632,3689,3680,3802,4063,4064,4003,5312,7097,7058
3936,2787,3685,2754,3806,5588,5797,3108,4575,5589,6304
3937,3711,3670,3880,3903,6757,6072,6763,6079,7040,7101
3938,1754,1612,1608,3791,2220,2219,2209,6222,4521,6857
3939,3633,3734,3707,3755,4850,5262,5146,5568,6037,6165
3940,2699,2741,2725,3714,3579,3083,3480,4308,7063,4793
3941,226,1704,1586,1113,1955,1960,1959,1220,7102,6216
3942,3766,3840,3649,3846,7098,5916,4415,6461,7103,6462
3943,1793,1674,1791,3829,2538,2535,2539,5160,5966,4967
3944,226,1704,1113,1112,1955,7102,1220,1218,6626,1222
3945,648,664,661,3671,1042,1079,935,6000,5474,6468
3946,1717,1718,112,587,1923,1919,1921,5368,5420,784
3947,2698,3669,2682,3906,6523,6522,3502,7042,7043,7104
3948,180,2736,2613,624,2940,2945,2944,885,6694,6607
3949,1594,1717,113,623,1926,1922,1924,4843,4958,787
3950,1126,1168,3792,3818,1522,6107,7105,7106,6106,5733
3951,1587,1736,236,1092,1990,1989,1985,6948,6732,1250
3952,1155,3825,3700,3837,7107,6559,7108,6250,7110,7109
3953,1092,236,1587,1124,1250,1985,6948,1252,1248,6957
3954,3704,3705,3616,3740,4698,5527,4840,4554,3979,5526
3955,304,1174,2757,2755,1347,6018,3010,3008,6017,3012
3956,2776,651,2598,3822,7091,6427,2888,6931,6428,6277
3957,3612,3814,3704,3896,6992,5874,4496,4838,5986,4837
3958,2611,172,625,2738,2916,861,6526,2921,2920,6470
3959,475,480,494,3794,570,573,572,6460,6015,6016
3960,2784,2622,3730,3749,3217,7111,6434,5636,7112,6435
3961,2802,2755,3679,3843,3607,6020,7113,7059,6327,6288
3962,2676,3689,2675,3772,4707,7114,3462,4593,4708,6409
3963,2662,2664,2663,3690,3405,3404,3400,5128,3957,4122
3964,1762,3662,1701,3852,4685,5654,2134,5185,5186,6566
3965,1581,1751,1752,3666,2092,2094,2091,4237,4058,4525
3966,2820,472,2712,3810,6855,6947,2860,6685,6856,5383
3967,1772,1672,1787,3850,2527,2360,2529,6568,6243,4197
3968,3616,3699,3705,3768,4735,7115,5527,4829,4830,5960
3969,3659,3840,3766,3846,5808,7098,6655,6654,7103,6461
3970,1102,1133,2754,297,1331,5794,6303,1330,1326,2987
3971,1089,1735,230,1122,6587,1967,1230,1234,6588,1232
3972,1137,1156,1163,3731,1422,1571,1560,4192,5718,5684
3973,3704,3768,3627,3897,4964,5802,4552,5062,5803,5189
3974,599,102,631,3717,758,754,759,6380,7116,7048
3975,118,638,1589,1762,802,4613,1939,1937,4684,1941
3976,2710,2716,2709,3687,3207,3149,3505,5508,7071,5541
3977,3688,3770,1577,3897,5651,6182,6180,4775,5940,7117
3978,599,1584,102,3717,7118,1891,758,6380,7088,7116
3979,297,2754,1102,2599,2987,6303,1330,2989,2991,6343
3980,1580,230,1735,1122,1971,1967,1972,6605,1232,6588
3981,2761,2811,2809,3871,3171,3553,3132,6705,6579,5870
3982,2783,372,357,3785,7054,405,7119,6510,6884,7078
3983,1090,2618,2723,292,4427,2976,4311,1315,2972,2974
3984,1758,1594,1708,3715,2157,2155,2158,4815,4867,6237
3985,2812,3872,3712,3906,7120,4804,6295,6297,7121,6296
3986,475,479,480,3789,552,571,570,6459,6943,6318
3987,304,1174,1101,2757,1347,1352,1351,3010,6018,4947
3988,2735,2730,2596,3671,3089,3091,3090,4248,4141,6040
3989,2705,3721,2748,3824,5834,7122,3590,5565,5674,7123
3990,3628,3826,3651,3873,5138,6332,7026,5127,7124,5145
3991,2802,3843,3679,3890,7059,6288,7113,7060,6984,6337
3992,240,1137,1119,1720,1262,1264,1260,1997,4250,4295
3993,2739,307,1139,1087,3017,1360,5050,5131,1356,1361
3994,1173,3703,1100,3792,6648,7125,1510,6651,6652,7126
3995,240,1137,1720,1591,1262,4250,1997,2001,4067,2002
3996,2610,2739,307,1139,3021,3017,3019,4670,5050,1360
3997,680,3649,3858,3912,6098,4820,6384,6099,5918,6518
3998,631,3717,1726,3858,7048,6985,7127,7049,5320,6986
3999,2821,368,2593,3785,7076,4210,2847,7077,4283,4281
4000,649,3707,3755,3889,5524,6165,7128,5837,6519,6544
4001,3627,3688,3671,3853,5294,5687,4235,7052,6171,6690
4002,3635,3747,3685,3891,5032,6365,5587,5207,5208,5950
4003,3684,3826,3665,3873,7129,4694,5155,4406,7124,6146
4004,1701,1589,1690,3883,2132,2130,2133,5705,4480,5686
4005,3784,3858,3649,3912,6516,4820,5917,5756,6518,5918
4006,3690,3704,3627,3738,4553,4552,4164,6433,4498,5188
4007,102,1726,631,3717,1889,7127,754,7116,6985,7048
4008,2761,3706,2811,3871,4316,6578,3171,6705,5632,6579
4009,1726,102,1584,3717,1889,1891,1893,6985,7116,7088
4010,3636,3831,3771,3884,5692,6005,6496,5914,5915,6602
4011,649,3707,650,3755,5524,6164,991,7128,6165,6038
4012,2714,2708,2706,3855,3592,3076,3254,6308,6261,4980
4013,1094,1179,1142,3725,1478,1477,1476,7000,5942,6050
4014,3681,3790,1746,3874,4824,7096,5440,5442,5788,5441
4015,2623,2614,158,618,2879,2878,2874,5609,6660,819
4016,2746,3744,3846,3904,6861,7130,7131,6862,6808,7132
4017,3625,3701,3795,3879,6309,5014,4485,4094,6283,6782
4018,170,681,2603,3718,855,7133,2910,7134,6417,7082
4019,2735,3671,2596,3853,4248,6040,3090,6691,6690,7135
4020,1140,1157,1154,3729,1407,1572,1548,7136,5681,5355
4021,1155,3837,3700,3900,6250,7109,7108,6251,6252,7137
4022,2680,2681,2679,3680,3487,3486,3481,4666,6662,4338
4023,3661,3843,3724,3890,6289,6576,6703,6729,6984,6671
4024,3801,3813,3646,3836,6711,6665,7138,6712,6586,6667
4025,2654,2691,3672,3882,3368,7093,4857,6891,7051,5142
4026,618,2614,158,597,6660,2878,819,823,6674,821
4027,2705,2775,2748,3721,3278,3145,3590,5834,5833,7122
4028,3633,3755,3707,3759,5568,6165,5146,3932,5630,6791
4029,3650,671,3848,3862,4823,4810,4412,5245,6191,7139
4030,3734,3755,3633,3834,6037,5568,4850,6067,6311,7140
4031,2815,3673,2816,3901,7141,6478,3118,7142,6638,6639
4032,2693,3872,2812,3906,7143,7120,3556,7144,7121,6297
4033,3663,3720,3631,3902,5289,5055,7145,4995,6247,7146
4034,1775,3747,1670,3891,4779,6501,2516,6970,5208,7147
4035,1140,3729,1154,3863,7136,5355,1548,7148,5601,5599
4036,170,608,681,3718,857,859,855,7134,7149,6417
4037,648,3671,661,3853,6000,6468,935,7150,6690,6270
4038,1169,3726,3664,3806,6416,5159,6415,6956,5983,4784
4039,2754,2794,2616,3685,3190,3189,2988,5797,6184,5846
4040,1704,225,1599,1112,1956,1952,1957,6626,1217,6627
4041,3685,3808,3626,3881,5956,6620,6693,6186,6187,6622
4042,476,479,1803,3789,549,7066,7151,4206,6943,7067
4043,3623,3743,3674,3779,4711,4832,4987,5772,6498,5549
4044,2676,2677,2675,3689,3468,3467,3462,4707,4062,7114
4045,1608,3791,1612,3798,6857,4521,2219,6887,4783,4472
4046,1598,1098,253,1703,6825,1299,2040,2041,4022,2036
4047,2622,2819,358,3749,2853,5823,7152,7112,5825,5826
4048,3617,3654,3737,3901,6531,6619,7153,6926,7154,5995
4049,1777,3675,1619,3842,5028,6335,2263,6580,4792,6336
4050,3652,3746,3612,3869,4014,5151,6704,6322,5153,5073
4051,2795,3751,2752,3895,7013,4751,3605,7014,4752,4753
4052,3661,3679,3843,3890,6285,6288,6289,6729,6337,6984
4053,170,2603,2749,3718,2910,2915,2914,7134,7082,7155
4054,1682,1713,1716,3688,2564,2074,2394,4181,4260,4678
4055,661,616,665,3688,1055,1052,936,6269,4216,4215
4056,1685,1755,1753,3720,2278,2128,2570,5642,6771,5935
4057,1125,3661,3843,3857,6547,6289,6548,6749,6491,6873
4058,2599,2787,2754,3806,3106,3108,2991,6344,4575,6304
4059,2628,2627,2626,3702,3230,3227,3231,4053,5579,4395
4060,2684,2697,3797,3833,3250,5413,6744,6866,5414,5211
4061,1170,1173,1100,3792,1511,1510,1507,6502,6651,7126
4062,2675,3689,2677,3772,7114,4062,3467,6409,4708,4782
4063,2766,2644,2642,3693,3310,3309,3311,5696,4345,5729
4064,2678,2679,2677,3689,3477,3476,3471,4324,4952,4062
4065,1647,3704,1645,3768,4839,6453,2395,4828,4964,7156
4066,247,1582,1110,3865,2022,7157,1283,7158,7160,7159
4067,3674,3743,3641,3779,4832,4723,4833,5549,6498,4630
4068,170,2749,608,3718,2914,7161,857,7134,7155,7149
4069,2811,2813,2763,3871,3173,3562,3549,6579,5741,5497
4070,2740,1100,1146,3703,7162,1346,7163,7164,7125,7165
4071,3674,3701,3641,3795,5013,6530,4833,4254,5014,4724
4072,1575,3719,1706,3868,7166,5043,2062,7167,4121,7168
4073,1783,1780,1667,3735,2502,2331,2503,5212,4620,4621
4074,2632,2631,2629,3876,3245,3238,3246,6374,4398,4399
4075,3714,3719,3632,3852,6159,4893,4310,6379,5081,5082
4076,1582,247,1712,3865,2022,2018,2023,7160,7158,4930
4077,2713,2675,3772,3826,3460,6409,5857,6333,7169,4693
4078,1589,605,119,1697,4034,805,1940,1944,5854,1942
4079,631,1726,101,3858,7127,1888,755,7049,6986,7170
4080,3650,3623,3804,3819,6824,4518,4937,5247,6715,7171
4081,1703,1583,1131,252,2038,6202,6200,2037,2033,1296
4082,3624,3649,3744,3846,6687,6596,6577,6686,6462,7130
4083,1694,1575,1706,3868,2060,2062,2061,5066,7167,7168
4084,2740,1146,2606,3703,7163,7172,3006,7164,7165,7173
4085,302,1100,1146,2740,1341,1346,1345,3002,7162,7163
4086,1694,3715,1707,3868,6803,7174,2063,5066,6802,7175
4087,1615,1614,3732,3815,2241,5114,3922,4202,5108,4204
4088,3725,3730,3657,3749,5946,5944,5941,5637,6435,6083
4089,1599,1095,1767,3816,6846,7176,1954,6629,6847,5974
4090,3632,3733,3689,3802,7177,6633,4063,5312,5178,7097
4091,1765,1767,3657,3816,2184,5972,7178,7179,5974,5973
4092,2606,302,1146,2740,3004,1345,7172,3006,3002,7163
4093,1792,1794,3729,3899,2154,5728,7180,7181,6400,6154
4094,590,666,628,3756,928,927,777,6437,5573,4529
4095,651,160,2598,656,827,2884,6427,829,825,6276
4096,1648,3699,1649,3768,5269,6205,2405,5168,4830,7085
4097,3625,3710,3690,3738,4941,6713,4219,4700,4546,6433
4098,1751,3666,1581,3858,4058,4237,2092,4113,4114,6822
4099,1158,3691,1159,3875,5900,5520,1561,7182,5812,5810
4100,1703,1131,1098,252,6200,1300,4022,2037,1296,1298
4101,1708,1707,1694,3715,2156,2063,2442,6237,7174,6803
4102,3669,3645,3764,3829,7183,4966,6700,6701,4968,4969
4103,659,660,634,3723,1074,940,1044,5454,6085,4129
4104,1136,3837,1161,3878,7184,6249,1438,7185,7186,6008
4105,3677,3767,1625,3841,4770,4609,4439,4370,5353,7187
4106,3724,3773,3614,3890,5481,5596,5595,6671,5471,5743
4107,2609,3792,2798,3818,7188,4796,3157,7189,5733,5732
4108,1147,3838,3679,3859,7190,3990,6286,6424,7191,6426
4109,1622,1620,1685,3765,2275,2277,2276,4806,5958,4808
4110,3620,3721,3686,3800,5706,5673,4657,4452,5223,5244
4111,3667,3750,3631,3765,6514,5018,6535,5366,5020,4807
4112,3670,3681,3614,3763,7192,7020,6168,5325,5280,5742
4113,3619,3797,3694,3831,4733,6486,5467,4557,7193,5287
4114,1767,1095,1177,3816,7176,1216,6267,5974,6847,6266
4115,1759,1754,1579,3823,2082,2081,2083,4638,6063,4532
4116,3651,3826,3684,3873,6332,7129,4118,5145,7124,4406
4117,2726,2727,2713,3723,3174,3461,3082,4130,6764,5578
4118,589,637,2608,3687,907,7194,7195,7196,7198,7197
4119,1790,1792,3729,3899,2534,7180,6976,6979,7181,6154
4120,2686,2652,2650,3763,3348,3347,3349,6740,5598,5324
4121,3684,3772,3665,3826,6465,4690,5155,7129,4693,4694
4122,371,2622,358,3749,7199,7152,414,7200,7112,5826
4123,1722,1680,3719,3852,2560,4892,7201,7202,5080,5081
4124,631,101,630,3858,755,751,756,7049,7170,7018
4125,1797,1798,3845,3847,2549,6902,6480,6483,6905,6485
4126,3723,3826,3628,3844,6334,5138,6720,6699,5139,4854
4127,2603,2746,2780,3744,3124,3127,3126,7083,6861,6805
4128,1118,306,2597,3769,1353,3014,4020,3986,7203,4007
4129,3656,3619,3728,3887,7204,5039,4402,6990,4600,7205
4130,1155,1152,3700,3825,1414,6561,7108,7107,6560,6559
4131,3640,3825,3700,3845,5000,6559,7206,6706,6563,6414
4132,2703,3846,3744,3912,7207,7130,7208,5754,7209,6144
4133,663,3683,590,3809,5840,6436,929,5446,5839,6466
4134,2776,606,3822,3824,7090,7092,6931,6932,7210,5883
4135,1125,1092,1147,3859,1466,1468,1467,6637,6737,6424
4136,3654,3849,3737,3901,6208,5766,6619,7154,7038,5995
4137,2720,2781,3714,3888,3153,7211,4822,5120,7212,5121
4138,3626,3658,3786,3815,7213,6797,7214,4728,4469,7215
4139,640,3721,672,3824,7216,6869,1010,7217,5674,5193
4140,247,1110,1116,3865,1283,1285,1281,7158,7159,5103
4141,1584,1761,1727,3742,2108,2107,2106,7089,6766,6765
4142,3612,3710,3812,3896,4544,4772,6928,4838,4926,6151
4143,2646,3659,3840,3885,6874,5808,5165,5166,5334,4934
4144,1706,1722,1680,3719,2064,2560,2461,5043,7201,4892
4145,2761,1141,312,3706,3969,1371,3032,4316,4317,7218
4146,1775,1670,1768,3891,2516,2517,2518,6970,7147,6708
4147,1118,1087,306,3769,1358,1357,1353,3986,5132,7203
4148,3699,3638,3705,3768,5422,4143,7115,4830,5167,5960
4149,600,676,674,3720,977,981,980,5230,5229,6148
4150,674,675,645,3720,1033,970,979,6148,4705,4174
4151,657,655,622,3708,925,994,1004,4012,4623,5713
4152,2768,3728,2628,3797,5038,4401,3241,4732,4429,4073
4153,2797,2752,3664,3895,3601,5042,6631,7219,4753,4786
4154,1098,1598,253,1115,6825,2040,1299,1303,6828,1301
4155,653,632,680,3912,1072,1071,1017,7220,7045,6099
4156,3616,3653,3740,3871,6657,5198,5526,5528,5869,5390
4157,3659,3624,3711,3773,7065,6758,5626,5480,6759,5627
4158,1645,3704,1646,3768,6453,5444,2390,7156,4964,6397
4159,2614,2624,2625,3734,3179,3182,3181,6716,4849,4356
4160,1745,3704,1645,3814,5337,6453,2388,5985,5874,7221
4161,3630,3662,3687,3913,6188,3981,5400,6401,7222,5543
4162,653,3744,632,3912,7223,5052,1072,7220,6144,7045
4163,3633,3798,3702,3893,6279,6254,4571,3972,4380,7035
4164,3628,3665,3826,3873,5851,4694,5138,5127,6146,7124
4165,609,676,673,3721,1024,1028,1027,5580,5221,5220
4166,640,673,672,3721,1026,961,1010,7216,5220,6869
4167,675,3739,633,3784,5076,7224,1030,6830,6831,7225
4168,2720,2781,2699,3714,3153,3578,3490,4822,7211,4308
4169,1754,3660,3791,3893,6062,6223,6222,6858,7036,6860
4170,1747,3677,1625,3841,5344,4439,2292,5367,4370,7187
4171,3616,3654,3737,3854,5778,6619,6027,5886,5555,7226
4172,1681,1718,1717,3770,2561,1923,2562,4957,5421,5371
4173,643,3714,662,3796,7227,6155,1047,7228,4972,6395
4174,1761,3742,1696,3880,6766,4612,2336,6810,6061,6059
4175,1090,1111,2618,292,1316,4702,4427,1315,1311,2972
4176,1619,1617,1618,3675,2260,2255,2261,6335,3950,4087
4177,2712,3783,2619,3861,6169,7229,3204,7230,5844,7231
4178,1116,1712,247,3865,5104,2018,1281,5103,4930,7158
4179,312,2612,2761,3706,3034,3036,3032,7218,7232,4316
4180,1106,312,1141,3706,1375,1371,1376,7233,7218,4317
4181,3654,3617,3737,3854,6531,7153,6619,5555,4550,7226
4182,3672,2691,3830,3882,7093,7050,3918,5142,7051,6225
4183,1662,3811,3736,3883,7032,6529,7234,7033,6081,7235
4184,2713,2673,2675,3826,3459,3457,3460,6333,4943,7169
4185,3614,3661,3724,3890,6728,6703,5595,5743,6729,6671
4186,1623,3750,1622,3817,6315,5019,2280,5149,5419,4651
4187,1607,1695,1605,3759,2205,2204,2202,3933,6204,4875
4188,617,669,660,3715,1056,941,1059,4866,5920,6084
4189,605,622,119,1697,810,809,805,5854,5990,1942
4190,3694,3797,3636,3831,6486,4220,4805,5287,7193,5692
4191,3670,3804,3623,3819,6762,4518,7236,6454,7171,6715
4192,2688,3728,2768,3745,7086,5038,3249,7237,5040,4718
4193,1759,1757,1686,3823,2084,2572,2249,4638,5912,4640
4194,1706,1680,1658,3856,2461,2460,2450,5044,4895,6680
4195,662,668,641,3719,1077,1076,919,6157,6158,7238
4196,1684,3717,1727,3898,5319,6784,2317,5657,5658,6769
4197,1659,1660,1661,3802,2457,2463,2462,4565,6888,4567
4198,312,1106,2612,3706,1375,7239,3034,7218,7233,7232
4199,1645,3704,1673,3814,6453,5267,2397,7221,5874,5873
4200,588,659,662,3868,917,921,920,7240,6193,7241
4201,659,635,660,3868,918,1058,1074,6193,7243,7242
4202,1748,101,1726,3858,1886,1888,1890,7019,7170,6986
4203,169,681,653,3744,854,856,852,7244,6418,7223
4204,1147,1164,3679,3838,1514,4089,6286,7190,4090,3990
4205,3689,3733,3632,3856,6633,7177,4063,6432,4604,4896
4206,589,2608,2716,3687,7195,2963,7245,7196,7197,7071
4207,3662,3714,3632,3852,6272,4310,6141,5186,6379,5082
4208,1739,1752,1685,3720,2090,2288,2569,4172,4524,5642
4209,3699,3727,3697,3820,4834,6996,7246,5270,6291,5506
4210,1802,366,1764,3807,7247,6968,1825,7248,6969,6132
4211,3659,3711,3624,3898,5626,6758,7065,6656,7249,6688
4212,306,2739,2597,3769,3016,3018,3014,7203,5051,4007
4213,166,633,610,3739,845,847,843,7250,7224,7251
4214,633,166,2600,3739,845,2902,7252,7224,7250,7253
4215,681,169,2603,3744,854,2911,7133,6418,7244,7083
4216,666,590,663,3683,928,929,931,5183,6436,5840
4217,1620,3765,3750,3842,5958,5020,7034,5959,4791,4789
4218,3695,3792,3642,3886,6650,4797,6345,6346,4945,4636
4219,3712,3829,3645,3872,6963,4968,6696,4804,7255,7254
4220,371,365,3730,3749,447,6174,7256,7200,6697,6435
4221,1605,1606,1607,3893,2162,2203,2202,4827,6600,3971
4222,1166,1165,1089,3752,1454,1453,1450,6352,6778,6664
4223,2600,3739,3774,3784,7253,7257,7258,7259,6831,6451
4224,668,662,643,3714,1077,1047,944,6156,6155,7227
4225,3672,3674,3623,3790,5531,4987,5495,5757,4267,4661
4226,3656,3728,3619,3797,4402,5039,7204,4075,4429,4733
4227,635,3715,660,3868,7260,6084,1058,7243,6802,7242
4228,641,3719,668,3852,7238,6158,1076,7261,5081,6378
4229,1095,1599,225,1112,6846,1952,1215,1219,6627,1217
4230,2704,3892,3739,3902,6538,6539,6537,7262,7263,6989
4231,2747,3825,2817,3911,7264,4999,3184,7265,6727,7266
4232,3616,3705,3699,3907,5527,7115,4735,6028,5903,7267
4233,597,682,650,3734,965,964,963,6760,6035,6034
4234,588,662,3719,3868,920,6157,7268,7240,7241,4121
4235,1690,1691,1664,3864,2487,2486,2479,5847,7269,5848
4236,306,1087,2739,3769,1357,5131,3016,7203,5132,5051
4237,1131,1098,1160,3696,1300,1500,1499,6201,4023,4247
4238,1675,1743,1796,3775,2428,2541,2540,4585,4586,5314
4239,2771,2600,3739,3774,3109,7253,6536,4906,7258,7257
4240,1147,1101,1174,3679,1515,1352,1516,6286,4950,6019
4241,169,653,2745,3744,852,7270,2907,7244,7223,7271
4242,1085,1162,1153,3673,1430,1434,1433,6234,6262,6137
4243,1151,1135,1165,3752,1449,1452,1506,5853,5606,6778
4244,2773,2721,2625,3734,3100,3183,3228,4238,5342,4356
4245,3720,3739,3631,3902,5077,6364,5055,6247,6989,7146
4246,1715,1710,3795,3809,2068,4486,6634,6635,6893,5664
4247,592,660,669,3723,939,941,938,6698,6085,6086
4248,2703,2767,3784,3912,3587,7272,5751,5754,7273,5756
4249,1142,1143,3725,3816,1483,4290,6050,6839,5099,5100
4250,474,495,482,3741,567,566,565,7274,5426,5427
4251,103,1584,599,3742,1892,7118,757,7275,7089,6381
4252,3627,3853,3671,3909,7052,6690,4235,4165,6692,4083
4253,1131,3696,1161,3900,6201,6009,1569,6908,6010,6011
4254,2743,308,1108,3716,3022,1363,3940,4337,7276,4336
4255,1690,3708,1691,3864,5685,6051,2487,5847,5715,7269
4256,658,672,642,3823,1013,960,956,5702,5190,5911
4257,169,2745,2603,3744,2907,2912,2911,7244,7271,7083
4258,2703,2767,2770,3784,3587,3111,3326,5751,7272,5813
4259,1112,3694,1143,3816,6789,4292,1482,6630,5098,5099
4260,3689,3632,3772,3856,4063,4781,4708,6432,4896,6242
4261,1606,3755,1595,3834,6599,7277,2163,6889,6311,7278
4262,3611,3798,3728,3887,4471,7279,5576,4929,5101,7205
4263,2684,2630,2697,3833,3243,3251,3250,6866,5862,5414
4264,593,667,668,3888,942,946,945,7280,6094,7281
4265,3771,3833,3636,3884,6497,5209,6496,6602,6389,5914
4266,636,103,599,3742,761,757,762,4387,7275,6381
4267,3699,3705,3638,3907,7115,4143,5422,7267,5903,5904
4268,186,589,637,2608,905,907,903,2958,7195,7194
4269,1108,308,1139,3716,1363,1359,1364,4336,7276,4668
4270,3625,3690,3710,3894,4219,6713,4941,4096,4046,6827
4271,1085,3673,1153,3911,6234,6137,1433,7282,6479,6549
4272,3613,3751,3803,3842,4331,6331,4263,4788,6919,4884
4273,3647,3759,3692,3855,5084,5806,4985,4978,6653,4643
4274,2648,3773,2649,3846,6641,7283,3333,6849,6850,7284
4275,3709,3745,3728,3786,7285,5040,7286,7287,6975,5408
4276,3621,3733,3689,3836,5176,6633,4325,4383,6646,4855
4277,2689,2787,3782,3881,3537,4996,7288,7289,7290,6439
4278,606,161,2776,651,830,2887,7090,832,828,7091
4279,677,598,3666,3858,968,4199,6841,6565,6823,4114
4280,2783,357,2821,3785,7119,7075,2844,6510,7078,7077
4281,3632,3719,3714,3796,4893,6159,4310,4973,6396,4972
4282,3660,3734,3633,3834,4876,4850,6163,4288,6067,7140
4283,2743,2610,308,3716,3024,3020,3022,4337,4669,7276
4284,657,667,637,3687,1008,943,922,4011,6092,7198
4285,2598,2776,161,651,2888,2887,2883,6427,7091,828
4286,1641,3710,1668,3812,6567,5416,2377,7291,4772,6150
4287,166,2758,2600,3739,2898,2903,2902,7250,7292,7253
4288,1731,1636,1634,3743,2344,2343,2345,5063,4709,4710
4289,1606,1605,1595,3755,2162,2161,2163,6599,5569,7277
4290,166,610,2758,3739,843,7293,2898,7250,7251,7292
4291,3628,3723,3651,3826,6720,4145,7026,5138,6334,6332
4292,682,619,650,3755,1061,988,964,6036,7294,6038
4293,1136,1155,1161,3837,1539,1570,1438,7184,6250,6249
4294,2610,1139,308,3716,4670,1359,3020,4669,4668,7276
4295,1123,1721,235,3857,6721,1982,1245,7295,7297,7296
4296,2757,2802,2755,3679,3608,3607,3012,4949,7113,6020
4297,593,668,3714,3888,945,6156,7298,7280,7281,5121
4298,3670,3681,3623,3804,7192,4516,7236,6762,4520,4518
4299,1776,3803,1777,3842,5299,5235,2273,5300,4884,6580
4300,1121,1158,1159,3875,1545,1561,1421,7299,7182,5810
4301,1669,1610,3709,3887,2228,4366,6551,6917,4927,4928
4302,1111,2618,2786,3725,4702,2973,7300,4703,4428,7301
4303,680,677,607,3784,1018,1015,1016,6517,6564,7302
4304,677,675,633,3784,971,1030,1014,6564,6830,7225
4305,1584,103,1730,3742,1892,1894,1896,7089,7275,4386
4306,1121,3691,1158,3875,7012,5900,1545,7299,5812,7182
4307,1126,2609,300,3818,7303,2998,1339,7106,7189,7304
4308,1750,1670,1775,3747,2254,2516,2515,4777,6501,4779
4309,2747,2817,2816,3911,3184,3568,3117,7265,7266,5759
4310,3637,3785,3761,3855,6446,6447,5505,6636,4979,5828
4311,595,621,658,3823,952,955,954,4530,6091,5702
4312,2653,2655,3819,3870,3361,6512,6941,7094,6116,6513
4313,3726,3757,3664,3803,5137,5057,5159,6407,4265,6330
4314,372,380,367,3761,470,452,442,6883,5930,5931
4315,636,1730,103,3742,4388,1894,761,4387,4386,7275
4316,1802,361,366,3807,7305,431,7247,7248,4508,6969
4317,3668,3853,3627,3909,5954,7052,5295,3994,6692,4165
4318,3658,3611,3786,3815,5529,5575,6797,4469,4676,7215
4319,3700,3801,3713,3847,7306,7307,7308,6904,4648,6316
4320,680,3784,607,3912,6517,7302,1016,6099,5756,7309
4321,1624,1623,1622,3817,2284,2280,2285,5003,5149,4651
4322,3633,3759,3707,3855,3932,6791,5146,4642,6653,5148
4323,1161,3696,1160,3828,6009,4247,1439,7004,4348,4326
4324,1693,1691,3741,3762,2186,6052,7310,7311,7312,5997
4325,598,675,677,3666,969,971,968,4199,4704,6841
4326,1159,1156,1083,3731,1424,1423,1420,5431,5718,7313
4327,1115,1096,1148,3787,1306,1487,1486,6746,5978,5791
4328,2648,2649,2647,3846,3333,3332,3327,6849,7284,6878
4329,2798,2797,3818,3895,3518,6632,5732,7079,7219,7080
4330,2608,186,589,2716,2958,905,7195,2963,2962,7245
4331,3637,3755,3707,3889,6790,6165,5525,5838,6544,6519
4332,637,3687,667,3888,7198,6092,943,7314,6096,6094
4333,3650,3804,3670,3819,4937,6762,6069,5247,7171,6454
4334,3625,3710,3701,3894,4941,5012,6309,4096,6827,6755
4335,1083,1159,3731,3875,1420,5431,7313,7315,5810,5861
4336,682,619,3755,3834,1061,7294,6036,6149,7316,6311
4337,3660,3798,3791,3893,6255,4783,6223,7036,4380,6860
4338,1698,1699,3764,3789,2050,6900,6274,5621,6901,6257
4339,1750,3709,1669,3815,4534,6551,2244,4727,4677,7317
4340,371,3730,2622,3749,7256,7111,7199,7200,6435,7112
4341,1128,1081,1152,3700,1291,1411,1410,6126,6129,6561
4342,1613,1669,3709,3815,2229,6551,4367,4675,7317,4677
4343,1650,1648,1681,3820,2410,2412,2411,5965,5004,5005
4344,3673,3849,1162,3865,6923,7318,6262,6139,7319,6263
4345,2815,2601,2816,3673,3115,3116,3118,7141,6233,6478
4346,1676,1797,3722,3847,2548,6597,6981,6982,6483,4159
4347,3630,3680,3662,3913,6951,6271,6188,6401,4904,7222
4348,1748,630,101,3858,7016,751,1886,7019,7018,7170
4349,1123,235,1124,3857,1245,1247,1249,7295,7296,6958
4350,1660,3736,1661,3802,7320,4811,2463,6888,4813,4567
4351,1774,1775,1597,3752,2174,2171,2172,4762,4763,5605
4352,3667,3613,3750,3842,4229,4760,6514,6198,4788,4789
4353,591,665,3668,3853,933,4300,5466,5952,6170,5954
4354,1583,1793,1703,3696,2101,2100,2038,6203,4259,4024
4355,3713,3801,3615,3847,7307,4421,6342,6316,4648,4158
4356,2791,2805,3769,3882,3546,5435,5079,6224,5436,4437
4357,2725,2675,2677,3772,3469,3467,3470,4780,6409,4782
4358,3669,3645,3829,3872,7183,4968,6701,6120,7254,7255
4359,1719,105,626,3848,1900,767,7321,7322,7324,7323
4360,3656,3798,1609,3887,4379,5237,5219,6990,5101,6991
4361,658,3822,606,3824,5963,7092,1012,5703,5883,7210
4362,3617,3699,3697,3907,4548,7246,4879,7325,7267,7326
4363,3638,3768,3770,3897,5167,5169,4956,5491,5803,5940
4364,2710,2709,2683,3776,3505,3499,3506,5509,5540,6911
4365,3617,3737,3699,3907,7153,7327,4548,7325,5690,7267
4366,648,613,664,3671,883,1043,1042,6000,6001,5474
4367,371,365,379,3730,447,457,468,7256,6174,6122
4368,1603,3657,1767,3851,6492,5972,2200,6495,5977,5975
4369,476,1803,1573,3789,7151,1847,4040,4206,7067,4205
4370,3617,3722,3775,3793,4616,5412,4587,4881,6476,6914
4371,3616,3705,3704,3768,5527,4698,4840,4829,5960,4964
4372,3728,3798,3656,3887,7279,4379,4402,7205,5101,6990
4373,3641,3701,3674,3779,6530,5013,4833,4630,4449,5549
4374,1795,3696,1583,3900,7328,6203,2102,6897,6010,6913
4375,3812,3875,3691,3896,6880,5812,7329,6151,6973,5585
4376,3611,3709,3728,3786,4368,7286,5576,5575,7287,5408
4377,3626,3658,3747,3881,7213,4189,4778,6622,6801,6367
4378,1082,2722,320,1130,6730,3056,1399,1400,6403,1395
4379,3626,3786,3709,3815,7214,7287,4536,4728,7215,4677
4380,1114,3682,1151,3827,7330,5852,1447,7331,7333,7332
4381,1692,1801,1573,3762,2049,1844,2046,5218,5694,4043
4382,2813,3849,2815,3901,5764,7334,3563,7037,7038,7142
4383,300,1103,1126,3818,1335,1340,1339,7304,6054,7106
4384,3733,3802,3632,3856,5178,5312,7177,4604,5468,4896
4385,2816,3673,2601,3911,6478,6233,3116,5759,6479,7335
4386,3675,3747,3658,3782,3926,4189,4188,6964,6438,5339
4387,624,613,179,3805,886,882,884,6785,6584,7336
4388,3685,3752,3626,3808,6351,4764,6693,5956,5894,6620
4389,1766,3694,1704,3816,5668,6788,2180,5669,5098,6628
4390,1763,1604,3755,3889,2190,7337,6541,6542,7338,6544
4391,3647,3771,3821,3884,5264,6145,4493,6388,6602,6603
4392,1763,1604,1605,3755,2190,2160,2201,6541,7337,5569
4393,1574,1689,1687,3807,2057,2056,2053,5571,6241,5086
4394,3669,3764,3645,3906,6700,4966,7183,7043,6024,6025
4395,3620,3721,3663,3877,5706,5322,6441,6570,6043,6614
4396,1725,3731,1591,3850,6813,4190,2143,7003,5538,7339
4397,1647,1648,1649,3768,2400,2405,2404,4828,5168,7085
4398,2774,3663,3892,3902,6786,7340,7341,7342,4995,7263
4399,2688,3728,3745,3786,7086,5040,7237,7087,5408,6975
4400,1728,1798,1596,3700,2166,2165,2029,6125,6903,6127
4401,1764,1763,1689,3807,2192,2574,2575,6132,6133,6241
4402,2820,2711,2592,3810,3068,3067,2863,6685,4864,4244
4403,1111,2786,1094,3725,7300,7343,1313,4703,7301,7000
4404,2616,2759,295,3808,2985,2981,2983,5955,7345,7344
4405,682,656,621,3734,966,1064,1062,6035,5816,5878
4406,3682,3808,1151,3827,5892,5893,5852,7333,7346,7332
4407,494,486,3754,3839,582,7347,6520,7348,7349,5820
4408,2753,300,2609,3818,2996,2998,3000,6030,7304,7189
4409,1794,1675,1796,3854,2543,2540,2544,5258,4577,5259
4410,3673,2815,3849,3901,7141,7334,6923,6638,7142,7038
4411,3630,3669,3736,3908,6455,6117,6950,6554,4923,6558
4412,3630,3811,3776,3864,6457,6458,5402,6339,5801,6533
4413,3710,3746,3612,3812,6714,5151,4544,4772,6927,6928
4414,1792,1794,1593,3729,2154,2151,2152,7180,5728,4271
4415,3656,3728,3702,3798,4402,4403,4054,4379,7279,6254
4416,1117,1162,3673,3849,1431,6262,6236,6924,7318,6923
4417,1171,3849,3654,3865,6207,6208,5616,6870,7319,4280
4418,3611,3728,3709,3887,5576,7286,4368,4929,7205,4928
4419,1574,361,1802,3807,6314,7305,1828,5571,4508,7248
4420,1171,1106,1157,3706,1534,1535,1409,5618,7233,5680
4421,3623,3681,3670,3870,4516,7192,7236,5496,5141,6877
4422,3666,3784,677,3858,6829,6564,6841,4114,6516,6565
4423,3616,3654,3854,3899,5778,5555,5886,4739,5635,5022
4424,1106,3706,1171,3849,7233,5618,1534,7350,5765,6207
4425,3667,3675,3620,3835,5364,4088,5365,6999,6391,6390
4426,2702,2738,2750,3676,3585,3168,3374,5745,6471,5746
4427,3750,3765,3667,3842,5020,5366,6514,4789,4791,6198
4428,1765,3657,1603,3884,7178,6492,2198,7351,6540,7015
4429,2617,2722,320,1082,3060,3056,3058,6843,6730,1399
4430,2730,2737,3671,3805,3092,6002,4141,4161,6840,4252
4431,3621,3813,3712,3829,4468,6585,4908,4590,4591,6963
4432,3620,3835,3778,3877,6390,5096,5707,6570,7002,6045
4433,1601,1763,3788,3889,2189,6321,7352,7353,6542,6383
4434,3662,3680,3630,3883,6271,6951,6188,4479,7354,6357
4435,3629,3767,3693,3841,4742,5352,6553,4874,5353,6488
4436,1799,3801,3700,3847,6929,7306,7355,7356,4648,6904
4437,3640,3775,3722,3793,6707,5412,5780,4434,6914,6476
4438,1592,105,1719,3848,1898,1900,1902,4654,7324,7322
4439,1784,3710,1641,3812,4463,6567,2369,4771,4772,7291
4440,1781,1770,3695,3841,2523,5196,7357,7358,4873,5197
4441,3654,3673,3849,3901,7359,6923,6208,7154,6638,7038
4442,3697,3699,3617,3727,7246,4548,4879,6996,4834,4714
4443,2675,2725,2713,3772,3469,3080,3460,6409,4780,5857
4444,1772,1725,1591,3850,2144,2143,2140,6568,7003,7339
4445,3621,3829,3712,3872,4590,6963,4908,4306,7255,4804
4446,2817,2615,3713,3825,3185,7360,4488,4999,7361,5001
4447,3622,3746,3710,3812,4729,6714,4178,4773,6927,4772
4448,3612,3740,3704,3814,5070,4554,4496,6992,6993,5874
4449,3704,3740,3616,3814,4554,5526,4840,5874,6993,6995
4450,2808,2807,3753,3869,3528,5418,6420,6421,6394,5563
4451,3624,3773,3659,3846,6759,5480,7065,6686,6850,6654
4452,3658,3626,3747,3815,7213,4778,4189,4469,4728,4203
4453,372,367,357,3785,442,439,405,6884,6445,7078
4454,1721,1587,235,3857,1987,1986,1982,7297,6949,7296
4455,1688,1603,3821,3884,2197,6504,7362,7363,7015,6603
4456,3673,3775,3654,3865,6915,5905,7359,6139,5315,4280
4457,2644,3693,2690,3885,4345,7364,3320,4932,4933,7365
4458,1170,1126,1168,3792,1508,1522,1464,6502,7105,6107
4459,2615,3713,3825,3837,7360,5001,7361,7366,6835,7110
4460,1637,1638,1639,3674,2351,2357,2356,4425,5306,4176
4461,1736,1737,1783,3859,2122,2588,2587,6735,6793,6794
4462,1110,1582,3845,3865,7157,7367,7368,7159,7160,6140
4463,3665,3628,3727,3873,5851,7025,5156,6146,5127,4405
4464,3689,3733,3621,3802,6633,5176,4325,7097,5178,4566
4465,1638,1683,1715,3795,2353,2365,2364,6809,4726,6634
4466,1655,1676,1653,3722,2436,2435,2433,4139,6981,4362
4467,231,1732,1093,3726,1974,5776,1235,7369,5775,5134
4468,1580,3726,1122,3891,7370,6761,6605,6606,5984,6590
4469,624,179,2736,3805,884,2941,6694,6785,7336,7371
4470,3660,3834,3633,3893,4288,7140,6163,7036,6890,3972
4471,2730,2737,2596,3671,3092,2939,3091,4141,6002,6040
4472,2773,3758,2778,3822,4241,5385,3102,4746,4747,5881
4473,3634,3769,3655,3781,3998,5113,6221,6955,6361,4071
4474,1799,3700,1798,3847,7355,6903,2169,7356,6904,6905
4475,364,361,1800,3821,434,7372,7021,6845,4492,7022
4476,1627,1626,3766,3767,2299,4696,7373,7374,4610,5202
4477,604,626,105,3848,768,767,763,4918,7323,7324
4478,679,3848,671,3862,6965,4810,1003,7375,7139,6191
4479,657,3687,589,3861,4011,7196,923,7376,5350,7377
4480,1154,1158,1109,3863,1429,1546,1547,5599,7379,7378
4481,1609,1607,1608,3798,2211,2207,2212,5237,4378,6887
4482,3691,3863,3814,3896,6944,6980,7380,5585,6938,5986
4483,3652,3812,3731,3875,6487,6815,5430,5811,6880,5861
4484,3704,3705,3627,3768,4698,4163,4552,4964,5960,5802
4485,2623,157,2620,618,2875,2871,2876,5609,818,5522
4486,1158,3691,1109,3863,5900,7009,1546,7379,6944,7378
4487,3677,3693,3618,3767,7100,4346,4438,4770,5352,4611
4488,3733,3801,3615,3836,5301,4421,4602,6646,6712,5404
4489,2629,2688,2632,3786,3248,3247,3246,5409,7087,6373
4490,2737,179,613,3805,2937,882,5999,6840,7336,6584
4491,1608,3798,1607,3893,6887,4378,2207,6859,4380,3971
4492,2702,2738,3676,3866,3585,6471,5745,6088,7381,6090
4493,1705,1793,3813,3829,2537,6961,4715,4835,5160,4591
4494,2616,295,1099,3808,2983,1324,5845,5955,7344,5957
4495,1638,1640,1639,3795,2362,2361,2357,6809,4695,4253
4496,494,480,486,3839,573,562,582,7348,6920,7349
4497,2651,3670,2652,3870,6595,5597,3346,7099,6877,6876
4498,1795,3813,3696,3900,6896,6960,7328,6897,6898,6010
4499,3676,3848,679,3862,6967,6965,6851,7069,7139,7375
4500,231,1093,1122,3726,1235,1237,1233,7369,5134,6761
4501,3676,3743,3650,3819,6499,4935,7382,5842,6500,5247
4502,3727,3820,1652,3873,6291,7073,7383,4405,5090,7074
4503,3614,3724,3661,3748,5595,6703,6728,5009,5478,5216
4504,1171,1162,3849,3865,1558,7318,6207,6870,6263,7319
4505,231,1580,1732,3726,1970,1975,1974,7369,7370,5775
4506,3661,3724,3629,3748,6703,6448,6583,5216,5478,4474
4507,3638,3699,3697,3820,5422,7246,4098,5006,5270,5506
4508,2750,3819,3676,3862,5841,5842,5746,7384,5246,7069
4509,1600,1693,1691,3741,2187,2186,2185,5181,7310,6052
4510,2592,2718,2822,3839,3069,3071,2866,3949,5721,6211
4511,1576,3756,1710,3809,6546,4687,2065,6959,6467,6893
4512,1090,1143,1175,3760,1455,1458,1457,4314,4293,7024
4513,2634,3786,2769,3881,6798,6974,3261,6799,6800,6934
4514,2662,2687,2764,3869,3396,3408,3407,5072,6718,5709
4515,1653,3727,1652,3873,4363,7383,2425,4404,4405,7074
4516,3658,3732,3620,3778,4187,4153,5683,5092,6358,5707
4517,1789,1790,1585,3863,2114,2113,2110,6936,6935,7385
4518,3614,3681,3670,3903,7020,7192,6168,4646,6507,7040
4519,1144,295,2759,3808,1320,2981,7386,7387,7344,7345
4520,2808,2807,2742,3753,3528,3597,3129,6420,5418,4076
4521,1637,1636,1638,3674,2347,2352,2351,4425,4988,5306
4522,3744,3846,3649,3912,7130,6462,6596,6144,7209,5918
4523,3646,3713,3700,3801,7055,7308,7388,7138,7307,7306
4524,667,638,668,3852,1007,1075,946,6506,5184,6378
4525,1789,1585,3691,3863,2110,7010,6945,6936,7385,6944
4526,245,1593,1080,3729,2016,4269,1277,7389,4271,4270
4527,1677,1795,3801,3813,2550,6895,7390,7391,6896,6711
4528,1663,1679,3764,3811,2484,5884,5897,5895,7392,5896
4529,1123,3695,1721,3857,6751,6750,6721,7295,5345,7297
4530,2600,3774,2770,3784,7258,6452,3112,7259,6451,5813
4531,2639,3877,3667,3892,7393,6615,5361,5362,7394,4683
4532,2820,2712,2711,3810,2860,3595,3068,6685,5383,4864
4533,1680,1762,1701,3852,2559,2134,2471,5080,5185,6566
4534,1580,231,1122,3726,1970,1233,6605,7370,7369,6761
4535,2688,3745,2769,3786,7237,6933,3263,7087,6975,6974
4536,3660,3791,3643,3823,6223,4914,7395,4531,5363,4639
4537,1799,1677,1795,3801,2553,2550,2554,6929,7390,6895
4538,648,2596,3671,3853,6039,6040,6000,7150,7135,6690
4539,300,2753,1103,3818,2996,6053,1335,7304,6030,6054
4540,245,1080,1140,3729,1277,1279,1275,7389,4270,7136
4541,1163,1156,1139,3716,1571,1544,1442,4960,5717,4668
4542,3675,3751,3667,3842,6918,4330,5364,4792,6919,6198
4543,3692,3759,3647,3771,5806,5084,4985,6273,4039,5264
4544,3703,3843,3661,3857,6575,6289,6702,6872,6873,6491
4545,3677,3698,3693,3799,6753,4347,7100,5624,5434,5695
4546,1723,1788,1789,3875,2577,2509,2111,7396,6879,7044
4547,3709,3786,3611,3815,7287,5575,4368,4677,7215,4676
4548,2641,2643,2771,3774,3303,3306,3305,4899,4769,4906
4549,2815,2731,3673,3849,3114,6232,7141,7334,6922,6923
4550,1592,604,105,3848,4946,763,1898,4654,4918,7324
4551,3616,3737,3699,3854,6027,7327,4735,5886,7226,4551
4552,2736,624,3805,3844,6694,6785,7371,6695,6611,4112
4553,1173,3703,3695,3857,6648,6647,6649,7057,6872,5345
4554,3634,3781,3655,3874,6955,4071,6221,5640,6113,6175
4555,1615,3747,1670,3815,3925,6501,2252,4202,4203,7397
4556,3702,3728,3611,3798,4403,5576,6490,6254,7279,4471
4557,3699,3737,3617,3854,7327,7153,4548,4551,7226,4550
4558,2800,2798,2609,3792,3158,3157,3154,4795,4796,7188
4559,3775,3845,1582,3865,6481,7367,7398,5315,6140,7160
4560,2759,3808,3745,3827,7345,6298,7399,7400,7346,5256
4561,2793,3745,2759,3808,6300,7399,3191,6299,6298,7345
4562,679,594,670,3676,948,949,951,6851,6473,6852
4563,224,1767,1599,1095,1949,1954,1953,1214,7176,6846
4564,2636,3782,3751,3835,5876,5608,7401,5877,5341,7402
4565,1723,1789,3691,3875,2111,6945,7008,7396,7044,5812
4566,2771,2770,2600,3774,3113,3112,3109,4906,6452,7258
4567,1140,1742,245,3729,7403,2012,1275,7136,7404,7389
4568,2635,2775,2705,3778,3276,3278,3267,5359,5835,5564
4569,2636,2796,3751,3782,3282,5607,7401,5876,4997,5608
4570,1755,1618,1756,3800,2268,2257,2129,6772,4451,4655
4571,1647,1645,1646,3768,2395,2390,2396,4828,7156,6397
4572,2603,3718,681,3744,7082,6417,7133,7083,5054,6418
4573,2688,2768,2792,3745,3249,3530,3529,7237,4718,4719
4574,1724,3731,1788,3875,7405,6812,2578,7406,5861,6879
4575,1593,245,1742,3729,2016,2012,2017,4271,7389,7404
4576,599,1584,3717,3742,7118,7088,6380,6381,7089,5049
4577,2715,2651,2653,3819,3353,3351,3354,5296,6581,6941
4578,2692,2763,2666,3871,3427,3426,3416,6710,5497,5389
4579,1582,1796,3775,3865,2095,5314,7398,7160,5260,5315
4580,2601,3673,1085,3911,6233,6234,6231,7335,6479,7282
4581,3624,3742,3717,3898,6573,5049,6572,6688,6768,5658
4582,1122,1169,1166,3726,1470,1521,1451,6761,6416,5982
4583,592,2613,3723,3844,6608,7407,6698,6609,6610,6699
4584,3631,3774,3666,3817,4898,5293,5056,4653,7031,4059
4585,3695,3703,3629,3857,6647,6592,5195,5345,6872,4478
4586,3658,3626,3786,3881,7213,7214,6797,6801,6622,6800
4587,1711,1577,3770,3897,2070,6182,6064,6065,7117,5940
4588,3663,3631,3892,3902,7145,4902,7340,4995,7146,7263
4589,3707,3759,3637,3855,6791,6212,5525,5148,6653,6636
4590,3713,3836,2728,3860,6832,6555,7408,6317,5405,6556
4591,3631,3720,3663,3765,5055,5289,7145,4807,5643,6442
4592,2737,2736,179,3805,2942,2941,2937,6840,7371,7336
4593,2750,3676,2611,3862,5746,6527,3166,7384,7069,7070
4594,2756,3703,2606,3843,6160,7173,3141,6574,6575,7409
4595,651,621,656,3822,1063,1064,829,6428,5880,5817
4596,3776,3908,3630,3913,4922,6554,5402,5544,6838,6401
4597,3665,3793,2672,3860,4882,6987,4456,4757,6356,6689
4598,3613,3667,3751,3842,4229,4330,4331,4788,6198,6919
4599,1661,3736,1663,3829,4811,6528,2472,4589,5428,5898
4600,2638,3751,3667,3835,6056,4330,6055,6997,7402,6999
4601,3631,3739,3666,3774,6364,5075,5056,4898,7257,5293
4602,2664,2662,2764,3740,3405,3407,3406,3977,5069,5708
4603,3619,3656,3831,3887,7204,5736,4557,4600,6990,4599
4604,3653,3814,3729,3899,6994,6977,5356,6658,5875,6154
4605,184,593,643,3714,899,901,897,7410,7298,7227
4606,3642,3693,3677,3841,5929,7100,4744,4745,6488,4370
4607,2786,2618,1111,291,2973,4702,7300,2969,2971,1312
4608,618,157,2620,601,818,2871,5522,820,816,5172
4609,3656,3771,3636,3831,4038,6496,6443,5736,6005,5692
4610,2818,3713,2615,3837,6833,7360,3186,6834,6835,7366
4611,1677,3733,1659,3813,7411,5177,2455,7391,5316,4466
4612,3691,3812,3652,3875,7329,6487,5519,5812,6880,5811
4613,3776,3811,3648,3864,6458,5799,4862,6533,5801,5785
4614,3642,3792,3695,3905,4797,6650,6345,5980,6108,6752
4615,3635,3685,3806,3891,5587,5589,4576,5207,5950,5951
4616,1795,1793,3696,3813,2104,4259,7328,6896,6961,6960
4617,1146,3703,1125,3843,7165,6871,1565,7412,6575,6548
4618,1099,295,1144,3808,1324,1320,1325,5957,7344,7387
4619,3670,3773,3624,3904,5328,6759,6068,6265,7413,6264
4620,1724,1725,1788,3731,2142,2579,2578,7405,6813,6812
4621,3729,3814,3653,3863,6977,6994,5356,5601,6980,5600
4622,1587,1124,235,3857,6957,1247,1986,6949,6958,7296
4623,1766,1704,1599,3816,2180,1957,2181,5669,6628,6629
4624,2797,3664,3818,3895,6631,5117,6632,7219,4786,7080
4625,3624,3744,3718,3904,6577,5054,6571,6264,6808,5377
4626,2768,2628,2684,3797,3241,3242,3244,4732,4073,6744
4627,3659,3748,3711,3910,5477,5625,5626,6886,5987,7414
4628,2795,2796,2752,3751,3292,3604,3605,7013,5607,4751
4629,3618,3766,3659,3840,4375,6655,5330,4507,7098,5808
4630,1173,1125,1146,3703,1564,1565,1509,6648,6871,7165
4631,2666,2664,2692,3740,3415,3417,3416,5388,3977,6709
4632,655,657,589,3861,925,923,924,5476,7376,7377
4633,2789,2606,2756,3703,3140,3141,3143,5865,7173,6160
4634,670,3676,594,3866,6852,6473,949,5518,6090,7415
4635,1776,1777,1619,3842,2273,2263,2271,5300,6580,6336
4636,1667,1633,3681,3903,2330,5804,6392,4644,7416,6507
4637,2803,2660,2658,3746,3387,3386,3388,4048,7027,4730
4638,1130,1150,1082,3777,1416,1415,1400,6404,5927,6731
4639,2813,2811,2612,3706,3173,3172,3169,5740,6578,7232
4640,3780,3789,3639,3839,6881,5645,5872,4323,4647,5821
4641,2818,2817,2615,3713,3188,3185,3186,6833,4488,7360
4642,2741,184,643,3714,2952,897,7417,7063,7410,7227
4643,3656,3797,3619,3831,4075,4733,7204,5736,7193,4557
4644,1727,1684,1726,3717,2317,2567,2105,6784,5319,6985
4645,2794,3685,2787,3881,6184,5588,3536,6185,6186,7290
4646,2791,3716,2744,3830,5078,4166,3163,5254,4168,4016
4647,2769,2688,2793,3745,3263,3532,3531,6933,7237,6300
4648,1134,1131,1161,3900,1297,1569,1568,6910,6908,6011
4649,1743,3722,1797,3775,4617,6597,2547,4586,5412,6482
4650,321,2790,2617,1082,3061,3063,3059,1398,6953,6843
4651,3626,3745,3786,3881,6621,6975,7214,6622,6301,6800
4652,1790,3729,1742,3863,6976,7404,2112,6935,5601,7418
4653,2612,2813,3706,3849,3169,5740,7232,7419,5764,5765
4654,1790,1792,1742,3729,2534,2153,2112,6976,7180,7404
4655,184,2781,593,3714,2956,7420,899,7410,7211,7298
4656,1800,361,1574,3821,7372,6314,1831,7022,4492,5572
4657,3693,3767,3677,3841,5352,4770,7100,6488,5353,4370
4658,3640,3845,3700,3847,6706,6414,7206,5779,6485,6904
4659,635,114,617,3715,794,790,795,7260,7421,4866
4660,3671,3688,3627,3897,5687,5294,4235,5492,4775,5189
4661,3777,3780,2719,3906,5871,6114,6031,5970,6042,7422
4662,3619,3728,3709,3745,5039,7286,5036,4720,5040,7285
4663,1617,1619,1777,3675,2260,2263,2262,3950,6335,5028
4664,1670,3747,1750,3815,6501,4777,2254,7397,4203,4727
4665,3640,3775,3673,3845,6707,6915,6954,6706,6481,6136
4666,3615,3801,3713,3836,4421,7307,6342,5404,6712,6832
4667,3636,3657,3725,3816,6082,5941,4105,5670,5973,5100
4668,2715,2749,2780,3718,3164,3128,3355,5615,7155,6806
4669,3700,3837,3646,3900,7109,7056,7388,7137,6252,6075
4670,482,474,3741,3762,565,7274,5427,6340,7423,5997
4671,3636,3797,3656,3831,4220,4075,6443,5692,7193,5736
4672,1769,3694,1766,3831,5286,5668,2494,4556,5287,5691
4673,1081,1596,250,3900,6128,2027,1290,7424,7426,7425
4674,3643,3822,3660,3823,5882,5150,7395,4639,5962,4531
4675,2795,2640,2638,3751,3290,3289,3291,7013,4329,6056
4676,114,1594,617,3715,1925,4842,790,7421,4867,4866
4677,3673,3845,3775,3865,6136,6481,6915,6139,6140,5315
4678,2749,3718,2715,3862,7155,5615,3164,7427,5376,5297
4679,2786,3725,2784,3730,7301,5534,3203,7428,5946,6434
4680,2638,2636,3751,3835,3280,7401,6056,6997,5877,7402
4681,2710,2712,2619,3861,3205,3204,3206,5510,7230,7231
4682,1771,1598,1115,254,2044,6828,6745,2043,2039,1302
4683,1627,1782,3767,3910,2310,4740,7374,7429,5988,5989
4684,2643,2641,2642,3698,3303,3298,3304,4226,4982,5730
4685,1683,3743,1731,3832,4722,5063,2355,5701,5981,7430
4686,2744,2791,2610,3716,3163,3160,3161,4166,5078,4669
4687,2705,2776,2778,3824,3591,3103,3268,5565,6932,5277
4688,2773,2778,2598,3822,3102,3101,3099,4746,5881,6277
4689,635,1707,114,3715,7431,1927,794,7260,7174,7421
4690,1660,3736,3802,3883,7320,4813,6888,7081,7235,5704
4691,652,611,10,363,709,705,707,5566,5550,397
4692,1746,1667,1633,3681,2341,2330,2339,5440,6392,5804
4693,1148,3777,1150,3787,6199,5927,1417,5791,6179,4382
4694,2788,2684,2785,3797,3512,3509,3513,4731,6744,4221
4695,1112,1143,1095,3816,1482,1481,1219,6630,5099,6847
4696,3624,3880,3742,3898,6071,6061,6573,6688,6811,6768
4697,30,1104,1145,362,1197,1202,1201,419,5513,5532
4698,2687,2662,2660,3746,3396,3395,3397,6717,5152,7027
4699,1683,1731,1719,3832,2355,2149,2566,5701,7430,7432
4700,641,116,588,3719,800,796,801,7238,7433,7268
4701,3653,3814,3691,3863,6994,7380,5583,5600,6980,6944
4702,2741,2781,184,3714,2957,2956,2952,7063,7211,7410
4703,3641,3795,3683,3809,4724,6792,6310,5663,5664,5839
4704,1126,3792,2609,3818,7105,7188,7303,7106,5733,7189
4705,2785,2723,2788,3760,3200,3134,3513,4107,4315,4663
4706,3659,2647,3840,3846,6875,6988,5808,6654,6878,7103
4707,3681,3763,3670,3870,5280,5325,7192,5141,5279,6877
4708,1117,1162,1085,3673,1431,1430,1382,6236,6262,6234
4709,2638,2636,2796,3751,3280,3282,3281,6056,7401,5607
4710,2703,2746,3744,3846,3336,6861,7208,7207,7131,7130
4711,2633,2634,3778,3876,3259,5091,6612,6613,6946,5711
4712,1747,1666,1623,3677,2293,2282,2291,5344,4030,5110
4713,1690,1589,1697,3708,2130,1944,2131,5685,4036,5855
4714,625,3676,679,3862,6472,6851,947,7068,7069,7375
4715,2815,2731,2601,3673,3114,3042,3115,7141,6232,6233
4716,3646,3713,3801,3836,7055,7307,7138,6667,6832,6712
4717,645,98,600,3720,746,742,747,4174,7434,5230
4718,114,1707,1594,3715,1927,1929,1925,7421,7174,4867
4719,2646,2644,2690,3885,3318,3320,3319,5166,4932,7365
4720,1694,3684,1654,3873,5065,5455,2441,5068,4406,5456
4721,2776,2598,2778,3822,2888,3101,3103,6931,6277,5881
4722,3660,3758,3643,3791,4878,5384,7395,6223,6329,4914
4723,1575,588,116,3719,7435,796,1931,7166,7268,7433
4724,641,1722,116,3719,7436,1933,800,7238,7201,7433
4725,2678,3689,2676,3836,4324,4707,3472,4384,4855,5403
4726,1779,3841,1781,3905,4369,7358,2139,5906,5907,7437
4727,2782,3785,2708,3855,7041,6260,3593,5827,4979,6261
4728,1606,1702,1754,3834,2164,2080,2210,6889,4320,7095
4729,3617,3722,3665,3727,4616,5154,4880,4714,4364,5156
4730,2720,3680,2679,3913,4821,4338,3488,4903,4904,7438
4731,3749,3821,3657,3884,6229,6371,6083,6387,6603,6540
4732,1691,1697,1600,3708,2188,1947,2185,6051,5855,5180
4733,645,1739,98,3720,4169,1879,746,4174,4172,7434
4734,3633,3692,3759,3855,4514,5806,3932,4642,4643,6653
4735,622,120,1697,1600,808,1943,5990,5712,1945,1947
4736,1606,3834,1754,3893,6889,7095,2210,6600,6890,6858
4737,3638,3671,3770,3805,4140,5473,4956,4102,4252,5397
4738,98,1753,600,3720,1877,5934,742,7434,5935,5230
4739,2808,2604,2809,3753,3130,3131,3133,6420,4154,5562
4740,3766,3767,3659,3910,5202,5331,6655,7439,5989,6886
4741,1662,1690,1664,3883,2480,2479,2478,7033,5686,5849
4742,1627,1782,1671,3767,2310,2312,2301,7374,4740,4741
4743,224,1767,1095,1177,1949,7176,1214,1212,6267,1216
4744,3663,3765,3720,3800,6442,5643,5289,5291,4453,5232
4745,1611,1687,1695,3771,2233,2235,2215,4344,5265,6774
4746,1767,1603,1765,3657,2200,2198,2184,5972,6492,7178
4747,1735,1089,3752,3891,6587,6664,7440,6591,6589,6353
4748,321,2790,1082,1178,3061,6953,1398,1402,6817,1403
4749,2687,3746,2807,3869,6717,6393,3526,6718,5153,6394
4750,1633,1635,1746,3681,2337,2340,2339,5804,4517,5440
4751,373,10,611,363,393,705,5551,398,397,5550
4752,1771,1115,1096,254,6745,1306,6324,2043,1302,1304
4753,1674,1661,1663,3829,2474,2472,2475,5966,4589,5898
4754,1104,30,374,362,1197,417,5512,5513,419,421
4755,2648,2801,3724,3885,3329,6921,6642,6643,7441,6423
4756,2770,3774,2645,3840,6452,6719,3316,5814,4868,5335
4757,1747,1623,1625,3677,2291,2289,2292,5344,5110,4439
4758,2783,2708,2782,3785,3594,3593,3210,6510,6260,7041
4759,680,632,631,3717,1071,973,1069,6097,5024,7048
4760,3652,3812,3691,3896,6487,7329,5519,6323,6151,5585
4761,120,622,603,1600,808,813,812,1945,5712,5179
4762,2722,2617,2810,3777,3060,3196,3198,6152,6844,5968
4763,369,365,3749,3821,445,6697,4455,4515,6370,6229
4764,1150,1098,1115,3787,1497,1303,1498,4382,4027,6746
4765,3691,3814,3653,3896,7380,6994,5583,5585,5986,5584
4766,2728,2676,2674,3860,3464,3463,3465,6556,4596,4756
4767,1575,116,1722,3719,1931,1933,1935,7166,7433,7201
4768,3624,3846,3744,3904,6686,7130,6577,6264,7132,6808
4769,1739,1753,98,3720,1881,1877,1879,4172,5935,7434
4770,608,671,654,3718,1019,1022,1021,7149,5731,5025
4771,1741,1795,1583,3900,2103,2102,2035,6909,6897,6913
4772,3671,3770,3688,3897,5473,5651,5687,5492,5940,4775
4773,670,626,679,3832,1067,999,951,5517,7442,6854
4774,608,671,3718,3862,1019,5731,7149,7443,6191,5376
4775,2786,1111,1094,291,7300,1313,7343,2969,1312,1308
4776,1582,1712,1796,3865,2023,2096,2095,7160,4930,5260
4777,640,2748,163,3721,7444,2889,834,7216,7122,7445
4778,3640,3700,3713,3847,7206,7308,4487,5779,6904,6316
4779,2634,2689,3782,3881,3272,7288,5340,6799,7289,6439
4780,2704,2771,2758,3739,3307,3110,3588,6537,6536,7292
4781,2624,2614,2623,3707,3179,2879,3180,5147,6661,5610
4782,1764,1601,1763,3788,2191,2189,2192,6239,7352,6321
4783,3726,3803,3635,3891,6407,5234,7446,5984,5556,5207
4784,2664,2666,2665,3705,3415,3414,3410,3959,5387,4079
4785,1779,1778,1666,3757,2499,2498,2495,4360,5767,4031
4786,3635,3726,3664,3803,7446,5159,5205,5234,6407,6330
4787,609,640,163,3721,838,834,836,5580,7216,7445
4788,3631,3750,3698,3817,5018,6515,4981,4653,5419,6754
4789,609,163,2607,3721,836,2893,4992,5580,7445,5581
4790,2680,2678,2724,3872,3482,3484,3483,4667,4305,4393
4791,1786,1772,3781,3874,2528,6867,6280,6281,6569,6113
4792,3638,3770,3678,3805,4956,5398,6046,4102,5397,6386
4793,1128,1152,1153,3845,1410,1567,1552,6413,6562,6135
4794,3619,3709,3682,3745,5036,5037,5034,4720,7285,7447
4795,1119,1163,1172,3781,1559,1444,1493,4296,6419,6360
4796,2697,2707,2784,3833,3574,3216,3575,5414,6429,5614
4797,1659,3733,1658,3802,5177,7448,2453,4565,5178,6679
4798,241,1137,1591,3731,1263,4067,2000,7449,4192,4190
4799,1092,1125,1124,3857,1466,1465,1252,6733,6749,6958
4800,1081,3700,1596,3900,6129,6127,6128,7424,7137,7426
4801,658,606,672,3824,1012,1009,1013,5703,7210,5193
4802,1698,1573,1699,3789,2048,2051,2050,5621,4205,6901
4803,370,3785,367,3807,4674,6445,441,4509,6402,6166
4804,3677,3693,3642,3799,7100,5929,4744,5624,5695,4583
4805,159,597,2614,3734,822,6674,2877,7450,6760,6716
4806,2704,3739,2758,3902,6537,7292,3588,7262,6989,7451
4807,2750,2715,3819,3862,3167,5296,5841,7384,5297,5246
4808,2748,2607,163,3721,2894,2893,2889,7122,5581,7445
4809,2765,3763,2804,3882,7452,5251,3519,7453,5281,4436
4810,3678,3770,3638,3820,5398,4956,6046,4817,5257,5006
4811,2819,2707,2593,3749,3077,3073,2850,5825,6372,4211
4812,2713,2725,2594,3796,3080,3079,3081,5858,4971,4538
4813,620,682,621,3834,1060,1062,953,4298,6149,6066
4814,3682,3709,3626,3745,5037,4536,4975,7447,7285,6621
4815,159,2614,2721,3734,2877,2882,2881,7450,6716,5342
4816,1688,3821,1687,3884,7362,5187,2055,7363,6603,6601
4817,1161,3828,1086,3878,7004,7454,1437,6008,7005,7455
4818,634,592,181,3723,892,888,890,4129,6698,7456
4819,241,1083,1137,3731,1265,1267,1263,7449,7313,4192
4820,3611,3658,3786,3876,5529,6797,5575,5226,5530,5410
4821,2631,2773,2627,3758,3239,3229,3237,4396,4241,6521
4822,371,358,365,3749,414,444,447,7200,5826,6697
4823,1615,1670,1750,3815,2252,2254,2243,4202,7397,4727
4824,1084,310,1120,3753,1369,1365,1370,4156,7457,4077
4825,2774,3892,2704,3902,7341,6538,3297,7342,7263,7262
4826,1094,3725,2786,3730,7000,7301,7343,7001,5946,7428
4827,679,3832,626,3848,6854,7442,999,6965,6966,7323
4828,649,650,602,3755,991,989,990,7128,6038,7458
4829,241,1724,1083,3731,2004,7459,1265,7449,7405,7313
4830,1615,1613,1614,3815,2240,2236,2241,4202,4675,5108
4831,592,2613,181,3723,6608,2943,888,6698,7407,7456
4832,2604,310,1084,3753,3028,1369,3965,4154,7457,4156
4833,1660,1662,3736,3883,2468,7234,7320,7081,7033,7235
4834,634,181,2726,3723,890,2947,4128,4129,7456,4130
4835,3669,3872,2682,3906,6120,7460,6522,7043,7121,7104
4836,2742,1120,310,3753,3945,1365,3026,4076,4077,7457
4837,2750,2738,2611,3676,3168,2921,3166,5746,6471,6527
4838,1654,1694,1656,3684,2441,2440,2439,5455,5065,6278
4839,241,1591,1724,3731,2000,2005,2004,7449,4190,7405
4840,3658,3782,3747,3881,5339,6438,4189,6801,6439,6367
4841,1117,1171,1162,3849,1533,1558,1431,6924,6207,7318
4842,1621,1620,3750,3842,2270,7034,5045,5046,5959,4789
4843,3643,3758,3660,3822,5384,4878,7395,5882,4747,5150
4844,1736,1587,1737,3857,1990,2123,2122,6734,6949,5379
4845,1799,3700,3801,3900,7355,7306,6929,6930,7137,6899
4846,2642,2641,2640,3698,3298,3294,3299,5730,4982,4231
4847,2723,293,2605,3760,2975,2977,2979,4315,7461,7029
4848,3700,3713,3646,3837,7308,7055,7388,7109,6835,7056
4849,2799,2650,2648,3773,3339,3338,3340,6668,5327,6641
4850,1173,3695,1123,3857,6649,6751,1562,7057,5345,7295
4851,610,675,674,3739,1029,1033,1032,7251,5076,6508
4852,1147,1164,1101,3679,1514,1513,1515,6286,4089,4950
4853,1155,1107,3825,3837,1540,7462,7107,6250,7463,7110
4854,2809,2692,3740,3871,3551,6709,5199,5870,6710,5390
4855,3665,3722,3617,3793,5154,4616,4880,4882,6476,4881
4856,3709,3728,3619,3887,7286,5039,5036,4928,7205,4600
4857,3689,3733,3615,3836,6633,4602,4706,4855,6646,5404
4858,649,3755,602,3889,7128,7458,990,5837,6544,7464
4859,2762,2816,3793,3901,3567,4432,6681,6683,6639,6640
4860,368,357,370,3785,408,440,443,4283,7078,4674
4861,2604,2742,310,3753,3030,3026,3028,4154,4076,7457
4862,1760,3809,1683,3832,7465,5662,2565,7466,5447,5701
4863,2613,2726,181,3723,2948,2947,2943,7407,4130,7456
4864,2634,2632,3786,3876,3260,6373,6798,6946,6374,5410
4865,2615,2747,316,3825,3048,3044,3046,7361,7264,7467
4866,479,79,476,1803,548,544,549,7066,1845,7151
4867,2723,1090,293,3760,4311,1314,2975,4315,4314,7461
4868,1786,1785,1746,3874,2079,2501,2525,6281,5629,5441
4869,1665,3831,1609,3887,5793,5735,2224,7468,4599,6991
4870,3676,3832,3641,3866,6853,5700,6773,6090,5450,5284
4871,1653,1652,1654,3873,2425,2430,2429,4404,7074,5456
4872,3680,3621,3736,3802,4303,4812,6118,7058,4566,4813
4873,1785,1738,3735,3838,2078,7469,5628,5638,7470,5677
4874,3736,3811,3630,3883,6529,6457,6950,7235,6081,6357
4875,3633,3834,3755,3893,7140,6311,5568,3972,6890,5570
4876,2689,2787,2796,3782,3537,3538,3283,7288,4996,4997
4877,625,594,679,3676,865,948,947,6472,6473,6851
4878,2804,2802,3679,3890,3523,7113,3996,6338,7060,6337
4879,2759,3745,2792,3827,7399,4719,3137,7400,5256,5015
4880,3757,3818,3642,3905,5118,5116,4743,5908,6110,5980
4881,1138,3757,1734,3905,6022,6004,6021,7084,5908,7471
4882,3648,3762,3810,3864,4044,4358,4246,5785,5786,7472
4883,2745,2703,3744,3912,3586,7208,7271,7473,5754,6144
4884,472,482,487,3810,556,557,520,6856,5859,6411
4885,3645,3872,3669,3906,7254,6120,7183,6025,7121,7043
4886,1082,1148,1178,3777,1418,1419,1403,6731,6199,6821
4887,618,597,650,3707,823,963,962,5523,6675,6164
4888,1578,239,1097,3781,1994,1257,7474,6742,7476,7475
4889,612,478,50,488,5558,511,715,5557,513,509
4890,3649,3784,3666,3858,5917,6829,4414,4820,6516,4114
4891,2687,2803,2807,3746,3398,3527,3526,6717,4048,6393
4892,1107,2615,316,3825,7477,3046,1387,7462,7361,7467
4893,1756,1686,1729,3686,2259,2571,2125,4656,4869,5623
4894,70,477,1105,489,535,5486,1207,531,536,5485
4895,3764,3780,3648,3789,6041,4321,6275,6257,6881,4207
4896,3639,3780,3764,3789,5872,6041,6215,5645,6881,6257
4897,1596,1741,250,3900,2032,2031,2027,7426,6909,7425
4898,1081,250,1134,3900,1290,1292,1294,7424,7425,6910
4899,1633,3804,3681,3903,5805,4520,5804,7416,7478,6507
4900,3635,3747,3675,3782,5032,3926,5029,4998,6438,6964
4901,2774,2704,2772,3902,3297,3589,3146,7342,7262,5305
4902,610,3739,674,3902,7251,6508,1032,7479,6989,6246
4903,3613,3677,3698,3750,4029,6753,4232,4760,4761,6515
4904,1781,3841,3695,3905,7358,5197,7357,7437,5907,6752
4905,3664,3726,3635,3806,5159,7446,5205,4784,5983,4576
4906,2678,2676,2696,3836,3472,3474,3473,4384,5403,6775
4907,2746,2745,2703,3744,3125,3586,3336,6861,7271,7208
4908,1730,1696,1761,3742,2146,2336,2109,4386,4612,6766
4909,159,2721,656,3734,2881,5815,824,7450,5342,5816
4910,3629,3703,3695,3886,6592,6647,5195,6398,5866,6346
4911,1662,1663,3736,3811,2473,6528,7234,7032,5895,6529
4912,2798,3799,2685,3895,4584,6738,3515,7079,4913,6739
4913,2670,2671,2669,3697,3439,3438,3433,4500,4459,4256
4914,1748,1751,1581,3858,2093,2092,1887,7019,4113,6822
4915,2620,2783,2782,3761,3211,3210,3209,5173,6509,5612
4916,2605,293,1149,3760,2977,1318,7480,7029,7461,7481
4917,50,612,488,683,715,5557,509,711,716,5749
4918,1176,70,1105,489,1205,1207,1209,5698,531,5485
4919,1652,1758,1708,3873,2421,2158,2432,7074,5088,6238
4920,591,661,665,3853,934,936,933,5952,6270,6170
4921,1627,1625,1626,3767,2298,2294,2299,7374,4609,4610
4922,1138,1734,233,3905,6021,1976,1239,7084,7471,7482
4923,3630,3736,3669,3811,6950,6117,6455,6457,6529,6456
4924,159,656,597,3734,824,826,822,7450,5816,6760
4925,1133,1165,1166,3685,1502,1454,1520,5798,6779,5948
4926,3635,3806,3726,3891,4576,5983,7446,5207,5951,5984
4927,1151,1114,1088,3682,1447,1446,1448,5852,7330,5661
4928,614,662,659,3796,1046,921,1045,4543,6395,4717
4929,2802,2757,2804,3679,3608,3096,3523,7113,4949,3996
4930,3680,3662,3802,3883,6271,5656,7058,7354,4479,5704
4931,3651,3772,3684,3826,5856,6465,4118,6332,4693,7129
4932,1661,1660,1662,3736,2463,2468,2467,4811,7320,7234
4933,3675,3751,3635,3782,6918,5204,5029,6964,5608,4998
4934,183,2741,643,3796,2953,7417,896,7483,7064,7228
4935,20,358,2622,2819,409,7152,2851,2849,5823,2853
4936,1155,1107,1152,3825,1540,1537,1414,7107,7462,6560
4937,1129,3838,1147,3859,7484,7190,1469,7485,7191,6424
4938,2778,3758,2631,3876,5385,4396,3257,5710,4400,4398
4939,1743,1676,1797,3722,2437,2548,2547,4617,6981,6597
4940,1119,1097,239,3781,1261,1257,1259,4296,7475,7476
4941,596,672,673,3686,959,961,958,5592,5191,6214
4942,3677,3613,3698,3799,4029,4232,6753,5624,4909,5434
4943,3659,3711,3898,3910,5626,7249,6656,6886,7414,7486
4944,2799,2648,2801,3724,3340,3329,3341,6669,6642,6921
4945,677,630,598,3858,967,753,968,6565,7018,6823
4946,2654,3870,2765,3882,4859,7487,3358,6891,5143,7453
4947,2747,1127,316,3825,7488,1383,3044,7264,7489,7467
4948,362,1145,376,3730,5532,7490,422,5514,5533,7491
4949,1725,1784,3812,3850,2581,4771,6814,7003,4712,5130
4950,1700,1771,1598,3787,2176,2044,2175,6557,6325,6826
4951,39,1800,364,361,1830,7021,432,430,7372,434
4952,1629,3898,3711,3910,7492,7249,7046,7493,7486,7414
4953,3696,3712,3646,3813,6962,6666,6074,6960,6585,6665
4954,238,1738,1578,3838,1991,1996,1995,7494,7470,6743
4955,1721,3695,1770,3857,6750,5196,2121,7297,5345,4476
4956,3646,3813,3801,3900,6665,6711,7138,6075,6898,6899
4957,1149,293,1090,3760,1318,1314,1319,7481,7461,4314
4958,2680,3872,2682,3908,4667,7460,3492,6376,6377,7495
4959,3616,3699,3737,3907,4735,7327,6027,6028,7267,5690
4960,1123,1173,1170,3695,1562,1511,1461,6751,6649,6659
4961,1592,1719,1731,3848,1902,2149,2148,4654,7322,5064
4962,3626,3745,3709,3786,6621,7285,4536,7214,6975,7287
4963,3703,3792,3695,3886,6652,6650,6647,5866,4945,6346
4964,3659,3898,3766,3910,6656,5659,6655,6886,7486,7439
4965,2727,3723,2613,3844,6764,7407,3175,5484,6699,6610
4966,1629,1628,3898,3910,2309,7496,7492,7493,7497,7486
4967,1672,1637,1787,3790,2349,2358,2360,6244,4426,4266
4968,107,644,590,3809,769,774,773,7498,6864,6466
4969,481,1801,77,3762,5932,1839,542,5933,5694,7499
4970,3662,3888,3687,3913,6095,6096,3981,7222,5122,5543
4971,1763,1695,1689,3759,2206,2573,2574,6213,6204,6240
4972,2728,3713,2818,3836,7408,6833,3572,6555,6832,6102
4973,674,676,639,3902,981,1025,1031,6246,6248,5304
4974,1578,1720,239,3781,1999,1998,1994,6742,4251,7476
4975,1746,3790,1672,3874,7096,6244,2350,5441,5788,6245
4976,2683,2717,3776,3908,3500,5272,6911,6912,5282,4922
4977,2799,3724,2756,3890,6669,6161,3610,6670,6671,6983
4978,1728,1797,1798,3845,2097,2549,2166,6412,6480,6902
4979,3667,3751,3675,3835,4330,6918,5364,6999,7402,6391
4980,594,3676,2738,3866,6473,6471,6469,7415,6090,7381
4981,1738,238,1129,3838,1991,1254,7500,7470,7494,7484
4982,1627,3767,3766,3910,7374,5202,7373,7429,5989,7439
4983,3735,3838,1738,3859,5677,7470,7469,6796,7191,7501
4984,1131,1160,1161,3696,1499,1439,1569,6201,4247,6009
4985,1175,1143,1112,3694,1458,1482,1553,7023,4292,6789
4986,3646,3712,3696,3878,6666,6962,6074,6073,6673,6007
4987,368,358,19,2819,411,410,406,5824,5823,2848
4988,1149,3827,3760,3867,7502,5016,7481,7503,7505,7504
4989,1740,1773,1774,3682,2117,2514,2173,5666,5033,4974
4990,1175,1149,3760,3867,1459,7481,7024,7506,7503,7504
4991,183,643,614,3796,896,898,894,7483,7228,4543
4992,3648,3764,3669,3780,6275,6700,5109,4321,6041,4920
4993,1720,1786,1772,3781,2075,2528,2141,4251,6280,6867
4994,3669,3780,3764,3906,4920,6041,6700,7043,6042,6024
4995,1635,1672,1746,3790,2348,2350,2340,4659,6244,7096
4996,3680,3736,3630,3883,6118,6950,6951,7354,7235,6357
4997,91,619,1595,3755,725,7507,1858,7508,7294,7277
4998,1155,1152,1081,3700,1414,1411,1412,7108,6561,6129
4999,1678,1611,1665,3771,2231,2223,2232,6604,4344,6475
5000,1081,1155,3700,3900,1412,7108,6129,7424,6251,7137
5001,1650,1652,3727,3820,2420,7383,6048,5965,7073,6291
5002,1683,1760,1715,3809,2565,2069,2365,5662,7465,6635
5003,2635,3835,2637,3877,5360,7061,3274,6925,7002,7509
5004,3663,3631,3765,3892,7145,4807,6442,7340,4902,7510
5005,1089,229,1735,3752,1229,1968,6587,6664,7511,7440
5006,1089,1135,229,3752,1231,1227,1229,6664,5606,7511
5007,1119,239,1720,3781,1259,1998,4295,4296,7476,4251
5008,2719,2617,2790,3777,3195,3063,3194,6031,6844,6820
5009,1597,229,1135,3752,1964,1227,5602,5605,7511,5606
5010,2750,2611,2715,3862,3166,3165,3167,7384,7070,5297
5011,2815,2813,2731,3849,3563,3170,3114,7334,5764,6922
5012,91,1595,1604,3755,1858,1860,1856,7508,7277,7337
5013,3650,3743,3676,3848,4935,6499,7382,4412,4944,6967
5014,1763,1605,1695,3759,2201,2204,2206,6213,4875,6204
5015,3739,3892,3631,3902,6539,4902,6364,6989,7263,7146
5016,1715,1576,1710,3809,2067,2065,2068,6635,6959,6893
5017,2600,633,3739,3784,7252,7224,7253,7259,7225,6831
5018,2635,2633,2634,3778,3264,3259,3265,5359,6612,5091
5019,1799,1709,3801,3847,2552,4765,6929,7356,4766,4648
5020,107,590,1576,3809,773,6545,1906,7498,6466,6959
5021,2621,2719,3754,3839,3212,6032,7512,7513,6033,5820
5022,1107,316,1127,3825,1387,1383,1388,7462,7467,7489
5023,3712,3872,3645,3906,4804,7254,6696,6296,7121,6025
5024,364,1800,40,1603,7021,1829,433,6892,1834,1833
5025,1765,1603,1688,3884,2198,2197,2199,7351,7015,7363
5026,2686,2804,3763,3890,3520,5251,6740,6741,6338,5472
5027,1760,644,107,3809,7514,769,1904,7465,6864,7498
5028,1147,1129,1164,3838,1469,1494,1514,7190,7484,4090
5029,2784,2707,2622,3749,3216,3218,3217,5636,6372,7112
5030,2630,3692,2706,3833,4352,4986,3253,5862,5809,4888
5031,3680,3908,2681,3913,6375,6663,6662,4904,6838,7515
5032,2764,2809,2692,3740,3552,3551,3418,5708,5199,6709
5033,1658,3802,3733,3856,6679,5178,7448,6680,5468,4604
5034,3676,3743,3641,3832,6499,4723,6773,6853,5981,5700
5035,3697,3727,3628,3820,6996,7025,4851,5506,6291,5126
5036,1671,1625,3767,3841,2300,4609,4741,4872,7187,5353
5037,3700,3825,3713,3837,6559,5001,7308,7109,7110,6835
5038,3619,3745,3682,3827,4720,7447,5034,5017,5256,7333
5039,485,3762,482,3810,4066,6340,554,4357,4358,5859
5040,1087,1172,1163,3769,1440,1444,1443,5132,6362,4961
5041,1629,1630,3711,3898,2313,7516,7046,7492,7517,7249
5042,625,679,671,3862,947,1003,1020,7068,7375,6191
5043,1781,1671,1770,3841,2521,2522,2523,7358,4872,4873
5044,2740,1100,3703,3792,7162,7125,7164,7518,7126,6652
5045,2643,2645,2770,3774,3313,3316,3315,4769,6719,6452
5046,1733,3726,1580,3891,6952,7370,2086,6178,5984,6606
5047,652,363,375,3761,5566,399,7519,5567,5554,7520
5048,1597,1735,229,3752,1969,1968,1964,5605,7440,7511
5049,1802,38,366,361,1823,427,7247,7305,429,431
5050,1125,1147,1174,3843,1467,1516,1566,6548,6287,6328
5051,238,1578,1097,3838,1995,7474,1256,7494,6743,7521
5052,1145,1180,376,3730,1203,7522,7490,5533,7523,7491
5053,480,484,473,3839,560,559,561,6920,3937,5469
5054,1111,1142,1143,3725,1475,1483,1456,4703,6050,4290
5055,2770,2645,2703,3840,3316,3324,3326,5814,5335,5753
5056,2668,2666,2763,3907,3424,3426,3425,6197,5498,5499
5057,3648,3669,3764,3811,5109,6700,6275,5799,6456,5896
5058,2754,2787,2794,3685,3108,3536,3190,5797,5588,6184
5059,1692,3811,1664,3864,5800,6080,2488,5784,5801,5848
5060,1749,1665,1609,3887,2225,2224,2221,4800,7468,6991
5061,1657,3733,1677,3801,4601,7411,2454,4420,5301,7390
5062,2679,3680,2681,3913,4338,6662,3486,7438,4904,7515
5063,2741,183,2594,3796,2953,2949,2954,7064,7483,4538
5064,1677,1659,1705,3813,2455,2464,2466,7391,4466,4715
5065,3663,3765,3667,3892,6442,5366,6440,7340,7510,4683
5066,1602,1771,1700,3794,2196,2176,2195,5938,6326,5647
5067,3679,3735,3661,3859,6593,5213,6285,6426,6796,6425
5068,1637,1635,1636,3790,2346,2342,2347,4426,4659,4660
5069,1620,1618,1755,3765,2266,2268,2267,5958,4125,6770
5070,371,20,358,2622,413,409,414,7199,2851,7152
5071,1719,626,3832,3848,7321,7442,7432,7322,7323,6966
5072,1175,3694,1112,3867,7023,6789,1553,7506,5288,7524
5073,481,482,485,3762,564,554,579,5933,6340,4066
5074,79,476,1803,1573,544,7151,1845,1843,4040,1847
5075,2821,18,368,357,2843,407,7076,7075,403,408
5076,3804,3880,3670,3903,6162,6072,6762,7478,7101,7040
5077,1088,3682,1114,3867,5661,7330,1446,6220,5157,7525
5078,1778,1734,1732,3757,2584,1978,2582,5767,6004,5777
5079,3680,3802,3736,3883,7058,4813,6118,7354,5704,7235
5080,2759,2793,2792,3745,3191,3533,3137,7399,6300,4719
5081,1677,3801,3733,3813,7390,5301,7411,7391,6711,5316
5082,2693,2682,3872,3906,3493,7460,7143,7144,7104,7121
5083,1799,1798,1709,3847,2169,2546,2552,7356,6905,4766
5084,2624,3707,2782,3855,5147,5611,3220,4641,5148,5827
5085,2812,3828,3712,3878,6294,6293,6295,7526,7005,6673
5086,1800,39,1574,361,1830,1826,1831,7372,430,6314
5087,19,368,2819,2593,406,5824,2848,2846,4210,2850
5088,2779,2702,2734,3866,3584,3384,3088,5494,6088,5283
5089,1673,1647,1744,3899,2398,2406,2408,5268,4737,5774
5090,2633,2778,2631,3876,3258,3257,3255,6613,5710,4398
5091,479,1602,80,1803,6942,1848,547,7066,1850,1846
5092,1662,1664,1663,3811,2478,2477,2473,7032,6080,5895
5093,3667,3765,3631,3892,5366,4807,6535,4683,7510,4902
5094,3697,3699,3638,3907,7246,5422,4098,7326,7267,5904
5095,2605,294,2759,3827,2978,2980,2982,7030,7527,7400
5096,3615,3836,3713,3860,5404,6832,6342,4595,5405,6317
5097,1765,3816,3657,3884,7179,5973,7178,7351,6026,6540
5098,1704,1766,1769,3694,2180,2494,2116,6788,5668,5286
5099,646,663,670,3866,1050,1078,950,5424,5449,5518
5100,3628,3820,3727,3873,5126,6291,7025,5127,5090,4405
5101,3657,3816,3636,3884,5973,5670,6082,6540,6026,5914
5102,1658,1680,1660,3802,2460,2459,2458,6679,5311,6888
5103,614,2594,183,3796,4542,2949,894,4543,4538,7483
5104,1630,1631,3711,3903,2319,6077,7516,7528,6078,6079
5105,2682,3872,3669,3908,7460,6120,6522,7495,6377,4923
5106,2775,2607,3721,3877,3144,5581,5833,6044,6781,6043
5107,1630,3711,3880,3903,7516,6763,7529,7528,6079,7101
5108,2783,17,2821,357,2840,2842,2844,7119,404,7075
5109,1604,602,91,3755,7530,721,1856,7337,7458,7508
5110,1629,1628,1630,3898,2309,2314,2313,7492,7496,7517
5111,1668,1643,1745,3896,2378,2387,2389,5417,4836,5338
5112,1671,1747,1625,3841,2302,2292,2300,4872,5367,7187
5113,2653,2651,2652,3870,3351,3346,3352,7094,7099,6876
5114,1651,1650,1652,3727,2415,2420,2419,4713,6048,7383
5115,17,2783,372,357,2840,7054,400,404,7119,405
5116,685,3783,691,3861,7531,5762,1039,7532,5844,5475
5117,1721,1781,1770,3695,2135,2523,2121,6750,7357,5196
5118,1798,1799,1596,3700,2169,2168,2165,6903,7355,6127
5119,2724,3712,2812,3872,4803,6295,3557,4393,4804,7120
5120,2741,3714,643,3796,7063,7227,7417,7064,4972,7228
5121,684,3788,686,3889,7533,6382,1036,7534,6383,5836
5122,3647,3692,3771,3833,4985,6273,5264,4887,5809,6497
5123,1596,3700,1799,3900,6127,7355,2168,7426,7137,6930
5124,619,91,602,3755,725,721,726,7294,7508,7458
5125,2817,3713,2728,3860,4488,7408,3564,7535,6317,6556
5126,613,624,678,3805,886,1041,1040,6584,6785,5395
5127,2624,2623,2782,3707,3180,3208,3220,5147,5610,5611
5128,1655,1654,1656,3684,2434,2439,2438,4135,5455,6278
5129,2630,2714,2706,3692,3234,3254,3253,4352,6307,4986
5130,2744,2803,2806,3830,3600,3389,3599,4016,4049,4021
5131,238,1097,1129,3838,1256,1258,1254,7494,7521,7484
5132,1183,1105,477,3754,1210,5486,7536,7537,6227,6226
5133,1183,477,491,3754,7536,537,7538,7537,6226,7539
5134,2653,2654,2655,3870,3356,3362,3361,7094,4859,6116
5135,1138,233,1091,3905,1239,1241,1243,7084,7482,6724
5136,1576,1760,107,3809,1908,1904,1906,6959,7465,7498
5137,1795,1793,1583,3696,2104,2101,2102,7328,4259,6203
5138,3751,3782,3675,3835,5608,6964,6918,7402,5341,6391
5139,1679,1699,1700,3764,2557,2194,2558,5884,6900,6256
5140,319,2602,1086,3828,3053,7540,1392,7541,7542,7454
5141,38,1802,1574,361,1823,1828,1827,429,7305,6314
5142,319,2722,2602,3828,3055,3057,3053,7541,6153,7542
5143,2593,18,368,2821,2845,407,4210,2847,2843,7076
5144,687,652,375,3761,710,7519,7543,7544,5567,7520
5145,2788,2768,2684,3797,3511,3244,3512,4731,4732,6744
5146,40,364,1603,360,433,6892,1833,435,437,6493
5147,2812,2602,3828,3878,3119,7542,6294,7526,7545,7005
5148,2765,3870,3763,3882,7487,5279,7452,7453,5143,5281
5149,2760,2818,3837,3878,3187,6834,7546,7547,6103,7186
5150,2777,2727,2613,3844,3176,3175,3177,5373,5484,6610
5151,2686,2650,2799,3890,3349,3339,3350,6741,5470,6670
5152,2801,3885,2690,3886,7441,7365,3331,7548,6894,7549
5153,2810,3777,2719,3906,5968,6031,3197,5969,5970,7422
5154,1620,1622,1621,3750,2275,2274,2270,7034,5019,5045
5155,359,1764,37,366,6795,1820,424,428,6968,426
5156,479,476,484,3789,549,577,576,6943,4206,4579
5157,1590,233,1734,3905,1980,1976,1981,6777,7482,7471
5158,3682,3745,3626,3808,7447,6621,4975,5892,6298,6620
5159,1598,1703,1791,3787,2041,2179,2178,6826,4025,4501
5160,1749,3831,1665,3887,4825,5793,2225,4800,4599,7468
5161,1585,1109,3691,3863,7006,7009,7010,7385,7378,6944
5162,2661,3690,2663,3909,4103,4122,3399,3992,3962,4123
5163,1175,3760,3694,3867,7024,4294,7023,7506,7504,5288
5164,1766,3816,1765,3884,5669,7179,2183,5913,6026,7351
5165,1095,1142,1177,3816,1484,1485,1216,6847,6839,6266
5166,1725,1784,1788,3812,2581,2507,2579,6814,4771,6816
5167,3681,3804,3670,3903,4520,6762,7192,6507,7478,7040
5168,366,1764,37,1802,6968,1820,426,7247,1825,1824
5169,1768,1733,1580,3891,2087,2086,2088,6708,6178,6606
5170,1086,1161,1160,3828,1437,1439,1436,7454,7004,4326
5171,366,361,370,3807,431,464,463,6969,4508,4509
5172,1172,1097,3781,3838,1492,7475,6360,6363,7521,6112
5173,1130,1160,1150,3828,1435,1501,1416,6405,4326,4327
5174,2789,2801,2690,3886,3543,3331,3542,5867,7548,7549
5175,2657,3701,2659,3879,6282,7550,3380,5453,6283,7551
5176,1726,1684,1748,3858,2567,2568,1890,6986,5321,7019
5177,2645,2646,2647,3840,3317,3323,3322,5335,5165,6988
5178,2802,2756,2755,3843,3606,3142,3607,7059,6574,6327
5179,1711,1577,1718,3770,2070,1920,2073,6064,6182,5421
5180,1574,1687,1688,3821,2053,2055,2054,5572,5187,7362
5181,3663,3877,2774,3892,6614,6787,6786,7340,7394,7341
5182,1795,1705,1793,3813,2551,2537,2104,6896,4715,6961
5183,2802,2799,2756,3890,3522,3610,3606,7060,6670,6983
5184,319,1130,2722,3828,1396,6403,3055,7541,6405,6153
5185,1114,3827,1149,3867,7331,7502,1556,7525,7505,7503
5186,2690,3693,2766,3886,7364,5696,3321,7549,5697,5162
5187,1175,1114,1149,3867,1555,1556,1459,7506,7525,7503
5188,3640,3713,3700,3825,4487,7308,7206,5000,5001,6559
5189,2762,2815,2816,3901,3559,3118,3567,6683,7142,6639
5190,2634,2689,2636,3782,3272,3271,3270,5340,7288,5876
5191,2693,2724,2812,3872,3495,3557,3556,7143,4393,7120
5192,2605,1149,294,3827,7480,1317,2978,7030,7502,7527
5193,2622,2786,2784,3730,3219,3203,3217,7111,7428,6434
5194,1738,1783,1785,3735,2589,2504,2078,7469,5212,5628
5195,630,680,631,3858,1070,1069,756,7018,6384,7049
5196,1610,1608,1612,3798,2217,2219,2218,4470,6887,4472
5197,1655,1709,1676,3847,2445,2447,2436,4157,4766,6982
5198,2739,2791,2805,3769,3159,3546,3095,5051,5079,5435
5199,3696,3813,3646,3900,6960,6665,6074,6010,6898,6075
5200,1602,80,475,479,1848,551,6804,6942,547,552
5201,1134,250,1741,3900,1292,2031,6906,6910,7425,6909
5202,2632,2769,2634,3786,3262,3261,3260,6373,6974,6798
5203,1698,3764,1679,3811,6274,5884,2485,6006,5896,7392
5204,2759,1144,3808,3827,7386,7387,7345,7400,7552,7346
5205,2760,2814,2818,3878,3121,3573,3187,7547,6105,6103
5206,2714,2630,2626,3692,3234,3233,3223,6307,4352,4394
5207,2616,2793,2759,3808,3192,3191,2985,5955,6299,7345
5208,2813,2694,3737,3901,3561,5992,5739,7037,5994,5995
5209,2736,3805,2700,3844,7371,4100,3581,6695,4112,4110
5210,2668,2763,3737,3907,3425,5689,6195,6197,5499,5690
5211,1614,1616,1615,3732,2246,2245,2241,5114,4152,3922
5212,589,3687,2716,3861,7196,7071,7245,7377,5350,7072
5213,2696,2728,2818,3836,3475,3572,3571,6775,6555,6102
5214,1738,1783,3735,3859,2589,5212,7469,7501,6794,6796
5215,3712,3828,3696,3878,6293,4348,6962,6673,7005,6007
5216,57,472,487,2712,518,520,516,2855,6947,6430
5217,2817,2728,2695,3860,3564,3466,3565,7535,6556,7553
5218,1144,2759,294,3827,7386,2980,1321,7552,7400,7527
5219,2798,2685,2797,3895,3515,3516,3518,7079,6739,7219
5220,1723,3691,1121,3875,7008,7012,7011,7396,5812,7299
5221,2712,57,472,2820,2855,518,6947,2860,2859,6855
5222,3648,3810,3776,3864,4246,4865,4862,5785,7472,6533
5223,3634,3735,3679,3838,5675,6593,3995,4151,5677,3990
5224,1086,1130,319,3828,1397,1396,1392,7454,6405,7541
5225,1659,1658,1660,3802,2453,2458,2457,4565,6679,6888
5226,2649,3773,2650,3904,7283,5327,3337,7554,7413,7555
5227,2695,2672,3793,3860,3455,6987,5203,7553,6689,6356
5228,2621,2719,2790,3754,3212,3194,3215,7512,6032,6819
5229,1803,1602,1699,3789,1850,2193,2052,7067,5937,6901
5230,1167,1168,1103,3818,1526,1523,1524,6313,6106,6054
5231,1127,1153,3825,3911,1432,6726,7489,7556,6549,6727
5232,618,650,649,3707,962,991,983,5523,6164,5524
5233,1632,1696,3804,3880,2335,4938,7557,7558,6059,6162
5234,2740,3792,3703,3886,7518,6652,7164,7559,4945,5866
5235,3696,3712,3645,3828,6962,6696,4091,4348,6293,4328
5236,678,669,623,3678,1065,1057,912,6385,5919,4844
5237,1679,1698,1699,3764,2485,2050,2557,5884,6274,6900
5238,2659,3701,2658,3894,7550,3914,3381,7560,6755,6756
5239,1144,1151,3808,3827,1505,5893,7387,7552,7332,7346
5240,2661,2662,3690,3894,3394,5128,4103,3956,6617,4046
5241,1132,1102,1169,3806,1334,1518,1517,6624,6305,6956
5242,2746,3846,2649,3904,7131,7284,3335,6862,7132,7554
5243,3687,3888,2608,3913,6096,7561,7197,5543,5122,7562
5244,1100,2740,301,3792,7162,3001,1342,7126,7518,7563
5245,2748,640,162,3824,7444,833,2890,7123,7217,7564
5246,1628,3766,1684,3898,7565,5318,2305,7496,5659,5657
5247,1588,1753,1755,3800,1878,2128,2127,5679,5936,6772
5248,1716,3688,1577,3897,4678,6180,2071,4774,4775,7117
5249,2784,2618,2785,3725,3202,3199,3201,5534,4428,4106
5250,2651,2649,2650,3904,3342,3337,3343,6582,7554,7555
5251,1166,1169,1102,3806,1521,1518,1519,5947,6956,6305
5252,1646,1648,3768,3897,2401,5168,6397,5445,5939,5803
5253,2606,3703,1146,3843,7173,7165,7172,7409,6575,7412
5254,1613,1750,1669,3815,2242,2244,2229,4675,4727,7317
5255,2791,2806,2691,3830,3548,3379,3547,5254,4021,7050
5256,1765,1599,1767,3816,2182,1954,2184,7179,6629,5974
5257,3623,3670,3819,3870,7236,6454,6715,5496,6877,6513
5258,2736,2700,2777,3844,3581,3442,3178,6695,4110,5373
5259,689,1805,603,3741,7566,7567,814,7568,7569,5106
5260,2639,2774,3877,3892,3287,6787,7393,5362,7341,7394
5261,1180,1094,2826,3730,1310,7570,7571,7523,7001,7572
5262,369,365,358,3749,445,444,446,4455,6697,5826
5263,1148,1150,1115,3787,1417,1498,1486,5791,4382,6746
5264,2666,2667,3705,3907,3420,4149,5387,5498,5902,5903
5265,2703,3840,2647,3846,5753,6988,3325,7207,7103,6878
5266,653,681,632,3744,856,1073,1072,7223,6418,5052
5267,1735,3752,1775,3891,7440,4763,2170,6591,6353,6970
5268,2732,2735,3853,3909,3093,6691,5953,7573,4249,6692
5269,2751,2752,2599,3806,3105,3104,2994,6623,4750,6344
5270,3667,3877,3663,3892,6615,6614,6440,4683,7394,7340
5271,2791,2691,2805,3882,3547,3544,3546,6224,7051,5436
5272,2709,3687,2608,3913,5541,7197,3150,5542,5543,7562
5273,1678,1687,3771,3884,2234,5265,6604,6355,6601,6602
5274,2688,2629,2768,3728,3248,3240,3249,7086,5407,5038
5275,1578,3781,1097,3838,6742,7475,7474,6743,6112,7521
5276,1100,301,1126,3792,1342,1338,1343,7126,7563,7105
5277,2609,1126,301,3792,7303,1338,2999,7188,7105,7563
5278,78,476,1801,481,545,5693,1840,541,546,5932
5279,369,361,364,3821,461,434,462,4515,4492,6845
5280,2775,2774,2607,3877,3148,3147,3144,6044,6787,6781
5281,1688,1603,1800,3821,2197,1834,2058,7362,6504,7022
5282,1582,3775,1797,3845,7398,6482,2098,7367,6481,6480
5283,1731,1683,1636,3743,2355,2354,2344,5063,4722,4709
5284,1113,1175,1112,3867,1554,1553,1222,6218,7506,7524
5285,3667,3835,3620,3877,6999,6390,5365,6615,7002,6570
5286,1784,1641,1668,3812,2369,2377,2379,4771,7291,6150
5287,1124,1173,1123,3857,1563,1562,1249,6958,7057,7295
5288,2812,3712,2814,3878,6295,6672,3123,7526,6673,6105
5289,1745,1645,1673,3814,2388,2397,2399,5985,7221,5873
5290,1801,1693,77,3762,1841,1837,1839,5694,7311,7499
5291,640,2748,3721,3824,7444,7122,7216,7217,7123,5674
5292,599,654,636,3742,974,976,762,6381,5047,4387
5293,2676,2728,2696,3836,3464,3475,3474,5403,6555,6775
5294,2740,3703,2789,3886,7164,5865,3139,7559,5866,5867
5295,2635,2637,2775,3877,3274,3277,3276,6925,7509,6044
5296,637,2608,3687,3888,7194,7197,7198,7314,7561,6096
5297,2730,2700,2737,3805,3432,3580,3092,4161,4100,6840
5298,1144,1114,1151,3827,1557,1447,1505,7552,7331,7332
5299,1127,1153,1152,3825,1432,1567,1538,7489,6726,6560
5300,2738,173,594,3866,2919,864,6469,7381,7574,7415
5301,2612,3706,1106,3849,7232,7233,7239,7419,5765,7350
5302,1614,1612,1759,3791,2237,2239,2238,5107,4521,4915
5303,376,2826,371,3730,7575,7576,415,7491,7572,7256
5304,1624,1752,1751,3817,2286,2094,2297,5003,4526,4060
5305,1146,303,2606,3843,1344,3005,7172,7412,7577,7409
5306,2609,301,2740,3792,2999,3001,3003,7188,7563,7518
5307,2798,2797,2753,3818,3518,3603,3156,5732,6632,6030
5308,1790,3814,1673,3899,6978,5873,2533,6979,5875,5268
5309,2820,58,472,483,2858,519,6855,6684,521,523
5310,2752,2787,2599,3806,3107,3106,3104,4750,4575,6344
5311,167,2767,607,3784,2905,7578,848,7579,7272,7302
5312,3711,3748,1629,3910,5625,7047,7046,7414,5987,7493
5313,2762,2670,2694,3901,3446,3435,3447,6683,5993,5994
5314,633,2600,167,3784,7252,2901,846,7225,7259,7579
5315,1644,1716,1646,3897,2393,2392,2391,5061,4774,5445
5316,1086,318,1136,3878,1393,1389,1394,7455,7580,7185
5317,690,478,612,3783,7581,5558,717,7582,5909,5910
5318,1114,3682,3827,3867,7330,7333,7331,7525,5157,7505
5319,490,478,690,3783,514,7581,7583,7584,5909,7582
5320,2719,3780,2698,3906,6114,6524,3577,7422,6042,7042
5321,369,364,365,3821,462,455,445,4515,6845,6370
5322,1646,1711,1648,3897,2403,2402,2401,5445,6065,5939
5323,2605,3760,1149,3827,7029,7481,7480,7030,5016,7502
5324,2765,2686,2804,3763,3360,3520,3519,7452,6740,5251
5325,3646,3801,3700,3900,7138,7306,7388,6075,6899,7137
5326,606,162,640,3824,831,833,835,7210,7564,7217
5327,633,167,607,3784,846,848,850,7225,7579,7302
5328,2732,2701,2735,3909,3583,3413,3093,7573,4019,4249
5329,106,644,1760,3832,770,7514,1903,7585,6865,7466
5330,3644,3776,3810,3864,5346,4865,5382,5714,6533,7472
5331,1769,1766,1665,3831,2494,2491,2492,4556,5691,5793
5332,1748,1684,1751,3858,2568,2307,2093,7019,5321,4113
5333,1785,1578,1738,3838,2077,1996,2078,5638,6743,7470
5334,3679,3838,3735,3859,3990,5677,6593,6426,7191,6796
5335,608,3718,2749,3862,7149,7155,7161,7443,5376,7427
5336,2776,2748,162,3824,2891,2890,2886,6932,7123,7564
5337,492,474,1805,3741,540,7586,7587,7588,7274,7569
5338,3743,3832,3676,3848,5981,6853,6499,4944,6966,6967
5339,1658,3733,1657,3856,7448,4601,2448,6680,4604,4605
5340,1710,1640,1715,3795,2374,2363,2068,4486,4695,6634
5341,1091,1170,1168,3905,1460,1464,1463,6724,6503,6109
5342,2760,1136,318,3878,7589,1389,3050,7547,7185,7580
5343,2817,2747,2615,3825,3184,3048,3185,4999,7264,7361
5344,1144,294,1149,3827,1321,1317,1322,7552,7527,7502
5345,1710,1576,1714,3756,2065,1911,2066,4687,6546,4607
5346,1663,1698,1679,3811,2481,2485,2484,5895,6006,7392
5347,2608,2709,2716,3687,3150,3149,2963,7197,5541,7071
5348,1790,1673,1792,3899,2533,2530,2534,6979,5268,7181
5349,1657,1677,1709,3801,2454,2456,2446,4420,7390,4765
5350,1657,1658,1659,3733,2448,2453,2452,4601,7448,5177
5351,2767,167,2600,3784,2905,2901,2906,7272,7579,7259
5352,1642,1644,1643,3738,2381,2380,2376,4699,5060,4499
5353,619,92,1595,3834,724,1859,7507,7316,7590,7278
5354,3682,3619,3827,3867,5034,5017,7333,5157,4447,7505
5355,2729,3879,2659,3894,3975,7551,3392,3954,3976,7560
5356,1587,1721,1770,3857,1987,2121,2120,6949,7297,4476
5357,2776,162,606,3824,2886,831,7090,6932,7564,7210
5358,2649,3846,3773,3904,7284,6850,7283,7554,7132,7413
5359,2729,2659,2661,3894,3392,3390,3393,3954,7560,3956
5360,3654,3849,3673,3865,6208,6923,7359,4280,7319,6139
5361,1705,1674,1793,3829,2476,2538,2537,4835,5966,5160
5362,2693,2812,2810,3906,3556,3558,3555,7144,6297,5969
5363,608,2749,171,3862,7161,2913,858,7443,7427,7591
5364,1590,1091,233,3905,6776,1241,1980,6777,6724,7482
5365,2720,2608,3888,3913,3152,7561,5120,4903,7562,5122
5366,2661,2663,2701,3909,3399,3402,3401,3992,4123,4019
5367,377,373,688,3788,395,7592,7593,7594,6350,7595
5368,616,661,647,3688,1055,1054,783,4216,6269,5649
5369,1582,1796,1797,3775,2095,2099,2098,7398,5314,6482
5370,1158,1121,1109,3691,1545,1273,1546,5900,7012,7009
5371,486,2825,491,3754,7596,7597,530,7347,7598,7539
5372,611,688,373,3788,706,7592,5551,6348,7595,6350
5373,370,357,367,3785,440,439,441,4674,7078,6445
5374,1659,1677,1657,3733,2455,2454,2452,5177,7411,4601
5375,1151,1165,1099,3808,1506,1503,1504,5893,6780,5957
5376,1726,1584,1727,3717,1893,2106,2105,6985,7088,6784
5377,1745,3814,1790,3896,5985,6978,2532,5338,5986,6939
5378,2629,2628,2768,3728,3236,3241,3240,5407,4401,5038
5379,1172,1164,1097,3838,1496,1495,1492,6363,4090,7521
5380,3650,3848,3676,3862,4412,6967,7382,5245,7139,7069
5381,2800,2690,2766,3886,3539,3321,3540,4635,7549,5162
5382,1086,2602,318,3878,7540,3052,1393,7455,7545,7580
5383,479,484,480,3789,576,560,571,6943,4579,6318
5384,1610,1609,3798,3887,2216,5237,4470,4927,6991,5101
5385,1789,1585,1723,3691,2110,2011,2111,6945,7010,7008
5386,615,666,663,3683,1048,931,1051,4984,5183,5840
5387,370,367,366,3807,441,450,463,4509,6166,6969
5388,1626,1628,1627,3766,2304,2303,2299,4696,7565,7373
5389,1183,2825,1178,3754,7599,7600,1404,7537,7598,6818
5390,2794,2769,2793,3881,3535,3531,3193,6185,6934,6302
5391,2596,648,177,3853,6039,878,2935,7135,7150,7601
5392,58,2820,2592,483,2858,2863,2862,521,6684,3948
5393,1716,1713,1577,3688,2074,1917,2071,4678,4260,6180
5394,1161,1155,1134,3900,1570,1413,1568,6011,6251,6910
5395,2603,2780,2749,3718,3126,3128,2915,7082,6806,7155
5396,78,476,1573,1801,545,4040,1842,1840,5693,1844
5397,644,663,590,3809,930,929,774,6864,5446,6466
5398,3666,3774,3739,3784,5293,7257,5075,6829,6451,6831
5399,630,677,680,3858,967,1018,1070,7018,6565,6384
5400,492,1805,689,3741,7587,7566,7602,7588,7569,7568
5401,2718,3780,2719,3839,5720,6114,3213,5721,4323,6033
5402,1644,1642,1682,3738,2381,2383,2382,5060,4699,4183
5403,1788,3812,1668,3896,6816,6150,2508,6972,6151,5417
5404,2707,2819,2622,3749,3077,2853,3218,6372,5825,7112
5405,1172,1087,1118,3769,1440,1358,1441,6362,5132,3986
5406,1693,3741,474,3762,7310,7274,7603,7311,5997,7423
5407,1173,1124,1125,3857,1563,1465,1564,7057,6958,6749
5408,1691,3762,1692,3864,7312,5218,2489,7269,5786,5784
5409,472,483,485,3810,523,558,555,6856,4245,4357
5410,2612,1106,313,3849,7239,1374,3035,7419,7350,7604
5411,1182,1096,1806,3794,1307,7605,7606,7607,5979,7608
5412,687,2823,601,3761,7609,7610,817,7544,7611,5174
5413,2685,2640,2795,3895,3301,3290,3302,6739,5097,7014
5414,1180,2826,376,3730,7571,7575,7522,7523,7572,7491
5415,631,632,599,3717,973,972,759,7048,5024,6380
5416,2734,2657,2659,3879,3382,3380,3383,4632,5453,7551
5417,3745,3808,3682,3827,6298,5892,7447,5256,7346,7333
5418,1705,1661,1674,3829,2465,2474,2476,4835,4589,5966
5419,644,3809,1760,3832,6864,7465,7514,6865,5447,7466
5420,1173,1146,1100,3703,1509,1346,1510,6648,7165,7125
5421,2763,2694,2668,3737,3437,3436,3425,5689,5992,6195
5422,2593,2708,2821,3785,3075,3078,2847,4281,6260,7077
5423,1126,1103,1168,3818,1340,1523,1522,7106,6054,6106
5424,1664,1691,1692,3864,2486,2489,2488,5848,7269,5784
5425,626,644,106,3832,771,770,766,7442,6865,7585
5426,2662,2663,2661,3690,3400,3399,3394,5128,4122,4103
5427,2595,2734,2729,3879,3087,3086,3085,6747,4632,3975
5428,2655,2656,2657,3779,3365,3371,3370,6115,4448,5452
5429,1744,3854,1794,3899,5773,5258,2542,5774,5022,6400
5430,1779,1734,3757,3905,2138,6004,4360,5906,7471,5908
5431,1146,1174,303,3843,1349,1348,1344,7412,6328,7577
5432,2676,2678,2677,3689,3472,3471,3468,4707,4324,4062
5433,2669,2667,2668,3907,3428,3423,3429,7612,5902,6197
5434,2755,2606,303,3843,3009,3005,3007,6327,7409,7577
5435,637,589,657,3687,907,923,922,7198,7196,4011
5436,2653,2655,2750,3819,3361,3364,3363,6941,6512,5841
5437,2615,3825,1107,3837,7361,7462,7477,7366,7110,7463
5438,2659,2658,2660,3894,3381,3386,3385,7560,6756,7028
5439,1110,1582,248,3845,7157,2021,1284,7368,7367,7613
5440,1627,3766,1628,3910,7373,7565,2303,7429,7439,7497
5441,1111,1094,1142,3725,1313,1476,1475,4703,7000,6050
5442,1136,1161,1086,3878,1438,1437,1394,7185,6008,7455
5443,1789,1745,1790,3896,2506,2532,2114,6937,5338,6939
5444,603,1805,1600,3741,7567,1948,5179,5106,7569,5181
5445,684,686,649,3889,1036,985,992,7534,5836,5837
5446,681,608,654,3718,859,1021,1023,6417,7149,5025
5447,619,1595,3755,3834,7507,7277,7294,7316,7278,6311
5448,1616,1614,1686,3732,2246,2248,2247,4152,5114,4563
5449,658,651,606,3822,1011,832,1012,5963,6428,7092
5450,2759,2792,2605,3827,3137,3136,2982,7400,5015,7030
5451,2689,2794,2787,3881,3534,3536,3537,7289,6185,7290
5452,1722,3719,641,3852,7201,7238,7436,7202,5081,7261
5453,1779,1781,1590,3905,2139,2136,2137,5906,7437,6777
5454,1148,1082,1150,3777,1418,1415,1417,6199,6731,5927
5455,372,2823,375,3761,7614,7615,402,6883,7611,7520
5456,3773,3846,3624,3904,6850,6686,6759,7413,7132,6264
5457,2690,2644,2766,3693,3320,3310,3321,7364,4345,5696
5458,1629,1630,1631,3711,2313,2319,2318,7046,7516,6077
5459,1737,1587,1770,3857,2123,2120,2124,5379,6949,4476
5460,2720,2679,2681,3913,3488,3486,3489,4903,7438,7515
5461,3676,3819,3650,3862,5842,5247,7382,7069,5246,5245
5462,1760,1719,106,3832,1905,1901,1903,7466,7432,7585
5463,173,646,594,3866,866,868,864,7574,5424,7415
5464,2758,2771,2600,3739,3110,3109,2903,7292,6536,7253
5465,2826,1094,2786,3730,7570,7343,2970,7572,7001,7428
5466,1797,1676,1798,3847,2548,2545,2549,6483,6982,6905
5467,1735,1775,1768,3891,2170,2518,2089,6591,6970,6708
5468,1719,626,106,3832,7321,766,1901,7432,7442,7585
5469,1140,1742,3729,3863,7403,7404,7136,7148,7418,5601
5470,2681,2680,2682,3908,3487,3492,3491,6663,6376,7495
5471,1088,1114,1113,3867,1446,1445,1225,6220,7525,6218
5472,2666,2667,2665,3705,3420,3419,3414,5387,4149,4079
5473,1782,1780,1737,3748,2322,2591,2590,4755,5007,5378
5474,1789,1788,1668,3896,2509,2508,2505,6937,6972,5417
5475,3644,3810,3762,3864,5382,4358,5996,5714,7472,5786
5476,3694,3760,3619,3867,4294,4664,5467,5288,7504,4447
5477,1651,1652,1653,3727,2419,2425,2424,4713,7383,4363
5478,610,633,675,3739,847,1030,1029,7251,7224,5076
5479,92,1702,1595,3834,1861,1863,1859,7590,4320,7278
5480,2690,3885,3693,3886,7365,4933,7364,7549,6894,5697
5481,482,481,474,3762,564,543,565,6340,5933,7423
5482,619,620,92,3834,729,728,724,7316,4298,7590
5483,2702,2655,2657,3779,3372,3370,3373,5722,6115,5452
5484,1802,1764,1689,3807,1825,2575,2059,7248,6132,6241
5485,1650,1758,1652,3820,2422,2421,2420,5965,4818,7073
5486,2738,2779,173,3866,2924,2923,2919,7381,5494,7574
5487,3695,3841,3642,3905,5197,4745,6345,6752,5907,5980
5488,2812,2814,2602,3878,3123,3122,3119,7526,6105,7545
5489,610,2758,3739,3902,7293,7292,7251,7479,7451,6989
5490,1106,1141,1157,3706,1376,1536,1535,7233,4317,5680
5491,2745,3744,653,3912,7271,7223,7270,7473,6144,7220
5492,1781,1779,1747,3841,2139,2496,2520,7358,4369,5367
5493,487,490,2824,3783,517,7616,7617,6410,7584,7618
5494,2740,2606,2789,3703,3006,3140,3139,7164,7173,5865
5495,1157,1140,1080,3729,1407,1279,1408,5681,7136,4270
5496,1081,1134,1155,3900,1294,1413,1412,7424,6910,6251
5497,1142,1095,1143,3816,1484,1481,1483,6839,6847,5099
5498,2652,3763,2765,3870,5598,7452,3359,6876,5279,7487
5499,3680,3630,3908,3913,6951,6554,6375,4904,6401,6838
5500,635,1707,3715,3868,7431,7174,7260,7243,7175,6802
5501,1754,1759,1612,3791,2082,2239,2220,6222,4915,4521
5502,92,620,1702,3834,728,4319,1861,7590,4298,4320
5503,588,3719,1575,3868,7268,7166,7435,7240,4121,7167
5504,593,3714,2781,3888,7298,7211,7420,7280,5121,7212
5505,2658,2659,2657,3701,3381,3380,3375,3914,7550,6282
5506,690,685,2824,3783,911,7619,7620,7582,7531,7618
5507,2654,2765,2691,3882,3358,3369,3368,6891,7453,7051
5508,1710,1714,1682,3756,2066,2563,2384,4687,4607,4184
5509,2755,303,1174,3843,3007,1348,6017,6327,7577,6328
5510,2739,2805,2597,3769,3095,3094,3018,5051,5435,4007
5511,2780,2651,2715,3904,3345,3353,3355,6807,6582,5298
5512,1632,3804,1633,3903,7557,5805,2328,7621,7478,7416
5513,1139,1156,1108,3716,1544,1543,1364,4668,5717,4336
5514,2753,2609,2798,3818,3000,3157,3156,6030,7189,5732
5515,1741,1799,1795,3900,2167,2554,2103,6909,6930,6897
5516,493,1806,475,3794,7622,7623,553,7624,7608,6460
5517,2695,2672,2762,3793,3455,3445,3456,5203,6987,6681
5518,2661,2660,2662,3894,3391,3395,3394,3956,7028,6617
5519,1777,1776,1733,3803,2273,2586,2585,5235,5299,6177
5520,2773,2631,2778,3758,3239,3257,3102,4241,4396,5385
5521,2722,2812,2602,3828,3120,3119,3057,6153,6294,7542
5522,94,642,1757,3823,734,5830,1867,7625,5911,5912
5523,1579,595,94,3823,4284,730,1865,4532,4530,7625
5524,2746,2649,2780,3904,3335,3344,3127,6862,7554,6807
5525,2694,2763,2813,3737,3437,3562,3561,5992,5689,5739
5526,177,648,591,3853,878,880,876,7601,7150,5952
5527,610,165,2758,3902,842,2899,7293,7479,7626,7451
5528,684,1804,688,3788,7627,7628,720,7533,7629,7595
5529,2766,2642,2685,3799,3311,3300,3312,5161,6474,6738
5530,1624,1622,1752,3817,2285,2287,2286,5003,4651,4526
5531,2617,2719,2810,3777,3195,3197,3196,6844,6031,5968
5532,2760,318,2602,3878,3050,3052,3054,7547,7580,7545
5533,171,625,608,3862,860,862,858,7591,7068,7443
5534,2637,2639,2774,3877,3284,3287,3286,7509,7393,6787
5535,1129,1738,3838,3859,7500,7470,7484,7485,7501,7191
5536,1632,1761,1696,3880,2325,2336,2335,7558,6810,6059
5537,2683,2682,2717,3908,3497,3501,3500,6912,7495,5282
5538,2673,2727,2671,3826,3451,3450,3448,4943,5483,4962
5539,2740,2800,3792,3886,3155,4795,7518,7559,4635,4945
5540,1669,1749,1610,3887,2230,2222,2228,6917,4800,4927
5541,2645,2647,2703,3840,3322,3325,3324,5335,6988,5753
5542,2611,171,2749,3862,2917,2913,2918,7070,7591,7427
5543,1792,1744,1794,3899,2531,2542,2154,7181,5774,6400
5544,2761,2612,2811,3706,3036,3172,3171,4316,7232,6578
5545,2783,2821,2708,3785,2844,3078,3594,6510,7077,6260
5546,362,1145,31,376,5532,1200,420,422,7490,389
5547,11,375,652,363,382,7519,708,396,399,5566
5548,2612,313,2731,3849,3035,3037,3039,7419,7604,6922
5549,1117,313,1106,3849,1378,1374,1379,6924,7604,7350
5550,1661,1662,1663,3736,2467,2473,2472,4811,7234,6528
5551,2620,601,2823,3761,5172,7610,2873,5173,5174,7611
5552,2732,2596,177,3853,2936,2935,2931,5953,7135,7601
5553,1120,1158,1084,3753,1426,1425,1370,4077,5901,4156
5554,2610,2743,2744,3716,3024,3162,3161,4669,4337,4166
5555,2823,687,375,3761,7609,7543,7615,7611,7544,7520
5556,2825,1183,491,3754,7599,7538,7597,7598,7537,7539
5557,2741,2699,2781,3714,3579,3578,2957,7063,4308,7211
5558,486,473,60,3839,529,525,527,7349,5469,7630
5559,1780,1782,1629,3748,2322,2311,2320,5007,4755,7047
5560,1653,1676,1743,3722,2435,2437,2427,4362,6981,4617
5561,2805,2765,2804,3882,3545,3519,3098,5436,7453,4436
5562,1728,248,1582,3845,2025,2021,2026,6412,7613,7367
5563,1110,248,1128,3845,1284,1286,1288,7368,7613,6413
5564,1629,3748,1782,3910,7047,4755,2311,7493,5987,5988
5565,2681,2683,2709,3908,3496,3499,3498,6663,6912,6837
5566,2784,2786,2618,3725,3203,2973,3202,5534,7301,4428
5567,2779,646,173,3866,5493,866,2923,5494,5424,7574
5568,1086,3828,2602,3878,7454,7542,7540,7455,7005,7545
5569,1083,3731,1724,3875,7313,7405,7459,7315,5861,7406
5570,2720,2709,2608,3913,3151,3150,3152,4903,5542,7562
5571,1806,1096,1182,255,7605,1307,7606,1819,1305,1196
5572,1094,1180,2826,290,1310,7571,7570,1309,1187,2832
5573,1117,2731,313,3849,6235,3037,1378,6924,6922,7604
5574,1596,1799,1741,3900,2168,2167,2032,7426,6930,6909
5575,1093,1169,1122,3726,1471,1470,1237,5134,6416,6761
5576,2709,2681,3908,3913,3498,6663,6837,5542,7515,6838
5577,1610,1609,1608,3798,2216,2212,2217,4470,5237,6887
5578,1181,223,1177,3851,1190,1211,1213,7631,7632,6268
5579,1755,1685,1620,3765,2278,2277,2267,6770,4808,5958
5580,595,642,94,3823,735,734,730,4530,5911,7625
5581,2825,322,1183,1178,2838,1193,7599,7600,1401,1404
5582,1628,1626,1684,3766,2304,2306,2305,7565,4696,5318
5583,1757,1579,94,3823,1869,1865,1867,5912,4532,7625
5584,1128,248,1728,3845,1286,2025,6124,6413,7613,6412
5585,2693,2698,2682,3906,3503,3502,3493,7144,7042,7104
5586,1594,1707,1708,3715,1929,2156,2155,4867,7174,6237
5587,359,377,1804,3788,425,7633,7634,6319,7594,7629
5588,2732,177,591,3853,2931,876,5463,5953,7601,5952
5589,685,691,655,3861,1039,996,926,7532,5475,5476
5590,1623,1621,1622,3750,2279,2274,2280,6315,5045,5019
5591,1178,2825,2790,3754,7600,3064,6817,6818,7598,6819
5592,60,473,2822,3839,525,6209,2864,7630,5469,6211
5593,1716,1577,1711,3897,2071,2070,2072,4774,7117,6065
5594,1692,1698,1664,3811,2047,2482,2488,5800,6006,6080
5595,1181,1807,223,3851,7635,1813,1190,7631,7636,7632
5596,1665,1749,1769,3831,2225,2493,2492,5793,4825,4556
5597,1633,1632,1634,3804,2328,2333,2332,5805,7557,4588
5598,1575,1722,1706,3719,1935,2064,2062,7166,7201,5043
5599,2817,2818,2728,3713,3188,3572,3564,4488,6833,7408
5600,3760,3827,3619,3867,5016,5017,4664,7504,7505,4447
5601,1771,1806,1096,3794,2045,7605,6324,6326,7608,5979
5602,1107,317,2615,3837,1386,3047,7477,7463,7637,7366
5603,2766,2685,2798,3799,3312,3515,3514,5161,6738,4584
5604,2634,2769,2689,3881,3261,3273,3272,6799,6934,7289
5605,1693,1805,474,3741,1838,7586,7603,7310,7569,7274
5606,1599,1765,1766,3816,2182,2183,2181,6629,7179,5669
5607,2799,2801,2756,3724,3341,3609,3610,6669,6921,6161
5608,2762,2816,2695,3793,3567,3566,3456,6681,4432,5203
5609,1733,1732,1580,3726,2085,1975,2086,6952,5775,7370
5610,2775,2607,2748,3721,3144,2894,3145,5833,5581,7122
5611,2634,2633,2632,3876,3259,3256,3260,6946,6613,6374
5612,1690,1697,1691,3708,2131,2188,2487,5685,5855,6051
5613,1739,1685,1753,3720,2569,2570,1881,4172,5642,5935
5614,2760,317,1136,3837,3049,1390,7589,7546,7637,7184
5615,2814,2812,2724,3712,3123,3557,3569,6672,6295,4803
5616,1667,1631,1633,3903,2329,2327,2330,4644,6078,7416
5617,1180,31,1145,376,1186,1200,1203,7522,389,7490
5618,171,2611,625,3862,2917,6526,860,7591,7070,7068
5619,375,687,11,652,7543,692,382,7519,710,708
5620,1778,1733,1776,3803,2583,2586,2497,5768,6177,5299
5621,683,603,691,3741,997,995,998,5750,5106,4891
5622,660,635,617,3715,1058,795,1059,6084,7260,4866
5623,643,593,668,3714,901,945,944,7227,7298,6156
5624,2665,2735,2663,3909,3412,3411,3409,4082,4249,4123
5625,641,588,662,3719,801,920,919,7238,7268,6157
5626,51,478,612,690,512,5558,714,699,7581,717
5627,2621,2825,486,3754,2870,7596,7638,7512,7598,7347
5628,1722,641,117,3852,7436,799,1934,7202,7261,7639
5629,477,1183,71,1105,7536,1191,534,5486,1210,1208
5630,51,478,690,490,512,7581,699,496,514,7583
5631,1091,1168,1138,3905,1463,1462,1243,6724,6109,7084
5632,491,1183,71,477,7538,1191,504,537,7536,534
5633,1621,1619,1620,3842,2269,2265,2270,5046,6336,5959
5634,486,60,2621,3839,527,2868,7638,7349,7630,7513
5635,674,645,600,3720,979,747,980,6148,4174,5230
5636,1796,1743,1797,3775,2541,2547,2099,5314,4586,6482
5637,1628,1684,1727,3898,2305,2317,2316,7496,5657,6769
5638,2666,2668,2667,3907,3424,3423,3420,5498,6197,5902
5639,1681,1711,1718,3770,2413,2073,2561,4957,6064,5421
5640,2727,2726,2613,3723,3174,2948,3175,6764,4130,7407
5641,688,89,1804,684,697,1810,7628,720,719,7627
5642,2824,685,2619,3783,7619,7640,2967,7618,7531,7229
5643,376,21,371,2826,388,412,415,7575,2830,7576
5644,684,1601,1804,3788,7641,1854,7627,7533,7352,7629
5645,1699,1573,1803,3789,2051,1847,2052,6901,4205,7067
5646,3766,3898,1628,3910,5659,7496,7565,7439,7486,7497
5647,609,673,640,3721,1027,1026,838,5580,5220,7216
5648,2747,1127,3825,3911,7488,7489,7264,7265,7556,6727
5649,2614,2625,2721,3734,3181,3183,2882,6716,4356,5342
5650,634,660,592,3723,940,939,892,4129,6085,6698
5651,687,2823,156,601,7609,2829,694,817,7610,815
5652,1156,1137,1083,3731,1422,1267,1423,5718,4192,7313
5653,1767,223,1807,3851,1950,1813,1951,5975,7632,7636
5654,1689,1574,1802,3807,2057,1828,2059,6241,5571,7248
5655,2783,2823,372,3761,2841,7614,7054,6509,7611,6883
5656,2673,2713,2727,3826,3459,3461,3451,4943,6333,5483
5657,3693,3885,3629,3886,4933,6449,6553,5697,6894,6398
5658,1783,1667,1785,3735,2503,2500,2504,5212,4621,5628
5659,651,658,621,3822,1011,955,1063,6428,5963,5880
5660,2745,2746,2603,3744,3125,3124,2912,7271,6861,7083
5661,1179,1094,1145,3730,1478,1480,1479,5945,7001,5533
5662,489,1176,69,1182,5698,1204,532,7642,1206,1195
5663,683,488,49,689,5749,508,712,713,7643,701
5664,2810,2719,2698,3906,3197,3577,3554,5969,7422,7042
5665,244,1742,1140,3863,2013,7403,1274,7644,7418,7148
5666,2594,2725,2741,3796,3079,3083,2954,4538,4971,7064
5667,1584,1730,1761,3742,1896,2109,2108,7089,4386,6766
5668,2760,2615,317,3837,3051,3047,3049,7546,7366,7637
5669,1107,1136,317,3837,1391,1390,1386,7463,7184,7637
5670,2824,2712,487,3783,2857,6430,7617,7618,6169,6410
5671,491,61,2825,486,502,2837,7597,530,528,7596
5672,1700,1598,1791,3787,2175,2178,2177,6557,6826,4501
5673,1767,1177,223,3851,6267,1211,1950,5975,6268,7632
5674,493,489,69,1182,533,532,505,7645,7642,1195
5675,492,49,488,689,500,508,510,7602,701,7643
5676,2760,3837,1136,3878,7546,7184,7589,7547,7186,7185
5677,610,639,165,3902,844,840,842,7479,5304,7626
5678,1097,1119,1172,3781,1261,1493,1492,7475,4296,6360
5679,2813,2815,2694,3901,3563,3560,3561,7037,7142,5994
5680,1779,1590,1734,3905,2137,1981,2138,5906,6777,7471
5681,2714,2624,2782,3855,3224,3220,3225,6308,4641,5827
5682,121,603,689,1805,811,814,703,1816,7567,7566
5683,60,2822,2621,3839,2864,2869,2868,7630,6211,7513
5684,601,686,652,3761,984,987,986,5174,5504,5567
5685,638,1762,117,3852,4684,1936,803,5184,5185,7639
5686,614,643,662,3796,898,1047,1046,4543,7228,6395
5687,1604,602,3755,3889,7530,7458,7337,7338,7464,6544
5688,1184,1096,1176,3794,1489,1490,1491,5459,5979,5699
5689,690,685,188,2824,911,909,700,7620,7619,2835
5690,2632,2688,2769,3786,3247,3263,3262,6373,7087,6974
5691,2686,2765,2652,3763,3360,3359,3348,6740,7452,5598
5692,2788,2723,2605,3760,3134,2979,3135,4663,4315,7029
5693,378,360,41,3851,438,436,392,7646,6494,7647
5694,671,679,604,3848,1003,1000,1001,4810,6965,4918
5695,1604,1595,1605,3755,1860,2161,2160,7337,7277,5569
5696,1104,1177,1179,3851,1529,1528,1527,5921,6268,6399
5697,2622,371,2826,3730,7199,7576,2854,7111,7256,7572
5698,1687,1611,1678,3771,2233,2231,2234,5265,4344,6604
5699,2740,2789,2800,3886,3139,3541,3155,7559,5867,4635
5700,2652,2765,2654,3870,3359,3358,3357,6876,7487,4859
5701,2772,2758,165,3902,2900,2899,2895,5305,7451,7626
5702,2621,3754,486,3839,7512,7347,7638,7513,5820,7349
5703,2695,2674,2672,3860,3454,3453,3455,7553,4756,6689
5704,612,691,685,3783,1037,1039,1038,5910,5762,7531
5705,638,117,641,3852,803,799,804,5184,7639,7261
5706,475,1806,1602,3794,7623,1851,6804,6460,7608,5938
5707,1678,1688,1687,3884,2555,2055,2234,6355,7363,6601
5708,378,1181,29,374,7648,1188,391,418,7649,416
5709,377,9,688,373,384,696,7593,395,394,7592
5710,2635,2705,2633,3778,3267,3266,3264,5359,5564,6612
5711,1591,1725,1724,3731,2143,2142,2005,4190,6813,7405
5712,2795,2638,2796,3751,3291,3281,3292,7013,6056,5607
5713,374,1181,29,1104,7649,1188,416,5512,1199,1198
5714,611,688,9,373,706,696,704,5551,7592,394
5715,1089,1165,1135,3752,1453,1452,1231,6664,6778,5606
5716,689,603,683,3741,814,997,713,7568,5106,5750
5717,478,487,495,3783,584,586,585,5909,6410,5241
5718,493,81,475,1806,507,550,553,7622,1817,7623
5719,1766,1765,1678,3884,2183,2556,2490,5913,7351,6355
5720,684,611,686,3788,1035,1034,1036,7533,6348,6382
5721,2636,2689,2796,3782,3271,3283,3282,5876,7288,4997
5722,378,41,1807,3851,392,1812,7650,7646,7647,7636
5723,1778,1779,1734,3757,2499,2138,2584,5767,4360,6004
5724,2692,2664,2764,3740,3417,3406,3418,6709,3977,5708
5725,1650,1681,1758,3820,2411,2423,2422,5965,5005,4818
5726,1178,1184,1105,3754,1532,1530,1531,6818,5547,6227
5727,1593,1742,1792,3729,2017,2153,2152,4271,7404,7180
5728,244,1109,1585,3863,1272,7006,2009,7644,7378,7385
5729,1149,1090,1175,3760,1319,1457,1459,7481,4314,7024
5730,477,494,486,3754,583,582,581,6226,6520,7347
5731,2797,2795,2752,3895,3517,3605,3601,7219,7014,4753
5732,1696,1634,1632,3804,2334,2333,2335,4938,4588,7557
5733,656,682,597,3734,966,965,826,5816,6035,6760
5734,1182,1806,493,3794,7606,7622,7645,7607,7608,7624
5735,1722,117,1762,3852,1934,1936,1938,7202,7639,5185
5736,2786,1094,2826,290,7343,7570,2970,2968,1309,2832
5737,1764,359,1804,3788,6795,7634,1822,6239,6319,7629
5738,2772,165,639,3902,2895,840,5303,5305,7626,5304
5739,2636,2637,2635,3835,3275,3274,3269,5877,7061,5360
5740,2711,2683,2717,3776,3508,3500,3066,4861,6911,5272
5741,2803,2687,2660,3746,3398,3397,3387,4048,6717,7027
5742,1806,1771,1096,255,2045,6324,7605,1819,2042,1305
5743,2804,2686,2802,3890,3520,3521,3523,6338,6741,7060
5744,1708,1694,1654,3873,2442,2441,2431,6238,5068,5456
5745,322,2825,2790,1178,2838,3064,3062,1401,7600,6817
5746,1786,1720,1578,3781,2075,1999,2076,6280,4251,6742
5747,2613,2736,2777,3844,2945,3178,3177,6610,6695,5373
5748,1647,1646,1648,3768,2396,2401,2400,4828,6397,5168
5749,2650,2649,2648,3773,3337,3333,3338,5327,7283,6641
5750,2703,2647,2746,3846,3325,3334,3336,7207,6878,7131
5751,1786,1672,1772,3874,2526,2527,2528,6281,6245,6569
5752,1735,1597,1775,3752,1969,2171,2170,7440,5605,4763
5753,1601,1804,89,684,1854,1810,1852,7641,7627,719
5754,685,2619,3783,3861,7640,7229,7531,7532,7231,5844
5755,362,371,379,3730,466,468,467,5514,7256,6122
5756,1606,1608,1607,3893,2208,2207,2203,6600,6859,3971
5757,1092,1736,237,3859,6732,1988,1251,6737,6735,7651
5758,1180,1145,1094,3730,1203,1480,1310,7523,5533,7001
5759,374,1181,1104,3851,7649,1199,5512,5922,7631,5921
5760,1768,1580,1735,3891,2088,1972,2089,6708,6606,6591
5761,374,378,1181,3851,418,7648,7649,5922,7646,7631
5762,607,3784,2767,3912,7302,7272,7578,7309,5756,7273
5763,2823,2620,156,601,2873,2872,2829,7610,5172,815
5764,1083,1724,242,3875,7459,2003,1266,7315,7406,7652
5765,1585,1742,244,3863,2014,2013,2009,7385,7418,7644
5766,244,1140,1109,3863,1274,1276,1272,7644,7148,7378
5767,619,602,650,3755,726,989,988,7294,7458,6038
5768,2705,2748,2776,3824,3590,2891,3591,5565,7123,6932
5769,376,371,362,3730,415,466,422,7491,7256,5514
5770,1601,3788,684,3889,7352,7533,7641,7353,6383,7534
5771,2693,2682,2680,3872,3493,3492,3494,7143,7460,4667
5772,2630,2706,2697,3833,3253,3252,3251,5862,4888,5414
5773,1738,1129,237,3859,7500,1253,1992,7501,7485,7651
5774,372,363,380,3761,469,471,470,6883,5554,5930
5775,242,1723,1121,3875,2007,7011,1268,7652,7396,7299
5776,1707,635,115,3868,7431,793,1928,7175,7243,7653
5777,492,488,474,3741,510,568,540,7588,5559,7274
5778,488,495,474,3741,569,567,568,5559,5426,7274
5779,2792,2793,2688,3745,3533,3532,3529,4719,6300,7237
5780,2770,2771,2643,3774,3113,3306,3315,6452,4906,4769
5781,588,1575,115,3868,7435,1930,797,7240,7167,7653
5782,2600,2770,2767,3784,3112,3111,2906,7259,5813,7272
5783,377,688,1804,3788,7593,7628,7633,7594,7595,7629
5784,16,2823,375,372,2828,7615,383,401,7614,402
5785,2639,2641,2704,3892,3293,3296,3295,5362,4900,6538
5786,1744,1649,1675,3854,2407,2416,2418,5773,6206,4577
5787,2621,2718,2719,3839,3214,3213,3212,7513,5721,6033
5788,1606,1754,1608,3893,2210,2209,2208,6600,6858,6859
5789,2604,2808,2742,3753,3130,3129,3030,4154,6420,4076
5790,2702,2779,2738,3866,3584,2924,3585,6088,5494,7381
5791,2698,2718,2717,3780,3576,3070,3504,6524,5720,5124
5792,1100,1126,1170,3792,1343,1508,1507,7126,7105,6502
5793,185,2608,637,3888,2959,7194,902,7654,7561,7314
5794,1625,1627,1671,3767,2298,2301,2300,4609,7374,4741
5795,1660,1701,1662,3883,2470,2469,2468,7081,5705,7033
5796,640,672,606,3824,1010,1009,835,7217,5193,7210
5797,2718,2698,2719,3780,3576,3577,3213,5720,6524,6114
5798,687,601,652,3761,817,986,710,7544,5174,5567
5799,380,373,359,3788,454,453,451,5890,6350,6319
5800,603,121,1600,1805,811,1946,5179,7567,1816,1948
5801,1630,3880,3711,3898,7529,6763,7516,7517,6811,7249
5802,2781,185,593,3888,2955,900,7420,7212,7654,7280
5803,1610,1749,1609,3887,2222,2221,2216,4927,4800,6991
5804,2824,685,188,2619,7619,909,2835,2967,7640,2964
5805,1656,1658,1657,3856,2449,2448,2444,6259,6680,4605
5806,2801,2648,2646,3885,3329,3328,3330,7441,6643,5166
5807,1640,1638,1715,3795,2362,2364,2363,4695,6809,6634
5808,486,491,477,3754,530,537,581,7347,7539,6226
5809,374,379,360,3851,460,458,459,5922,6431,6494
5810,490,690,2824,3783,7583,7620,7616,7584,7582,7618
5811,1719,1760,1683,3832,1905,2565,2566,7432,7466,5701
5812,2749,2715,2611,3862,3164,3165,2918,7427,5297,7070
5813,1776,1619,1621,3842,2271,2269,2272,5300,6336,5046
5814,2791,2744,2806,3830,3163,3599,3548,5254,4016,4021
5815,633,607,677,3784,850,1015,1014,7225,7302,6564
5816,377,1804,36,359,7633,1808,386,425,7634,423
5817,1702,1606,1595,3834,2164,2163,1863,4320,6889,7278
5818,1688,1800,1574,3821,2058,1831,2054,7362,7022,5572
5819,372,375,363,3761,402,399,469,6883,7520,5554
5820,486,480,473,3839,562,561,529,7349,6920,5469
5821,2715,2653,2750,3819,3354,3363,3167,5296,6941,5841
5822,1174,1146,1125,3843,1349,1565,1566,6328,7412,6548
5823,2735,2596,2732,3853,3090,2936,3093,6691,7135,5953
5824,646,670,594,3866,950,949,868,5424,5518,7415
5825,1632,3880,3804,3903,7558,6162,7557,7621,7101,7478
5826,2621,2825,61,486,2870,2837,2867,7638,7596,528
5827,1092,237,1129,3859,1251,1253,1255,6737,7651,7485
5828,1171,1116,1162,3865,1406,1549,1558,6870,5103,6263
5829,1736,1738,237,3859,1993,1992,1988,6735,7501,7651
5830,626,670,644,3832,1067,1066,771,7442,5517,6865
5831,1725,1787,1784,3850,2580,2370,2581,7003,4197,4712
5832,2638,2637,2636,3835,3279,3275,3280,6997,7061,5877
5833,490,56,487,2824,498,515,517,7616,2833,7617
5834,2740,2800,2609,3792,3155,3154,3003,7518,4795,7188
5835,1757,1759,1579,3823,2084,2083,1869,5912,4638,4532
5836,1121,1083,242,3875,1270,1266,1268,7299,7315,7652
5837,2716,187,589,3861,2961,906,7245,7072,7655,7377
5838,315,1127,2747,3911,1384,7488,3043,7656,7556,7265
5839,1588,1755,1756,3800,2127,2129,2126,5679,6772,4655
5840,2647,2649,2746,3846,3332,3335,3334,6878,7284,7131
5841,1724,1723,242,3875,2008,2007,2003,7406,7396,7652
5842,2601,1085,315,3911,6231,1380,3041,7335,7282,7656
5843,608,625,671,3862,862,1020,1019,7443,7068,6191
5844,607,2767,168,3912,7578,2904,849,7309,7273,7657
5845,684,90,1601,3889,718,1853,7641,7534,7658,7353
5846,1183,1178,1105,3754,1404,1531,1210,7537,6818,6227
5847,168,2745,653,3912,2908,7270,851,7657,7473,7220
5848,2659,3879,3701,3894,7551,6283,7550,7560,3976,6755
5849,2807,2808,2687,3869,3528,3525,3526,6394,6421,6718
5850,635,588,115,3868,798,797,793,7243,7240,7653
5851,682,620,619,3834,1060,729,1061,6149,4298,7316
5852,648,661,591,3853,935,934,880,7150,6270,5952
5853,1677,1705,1795,3813,2466,2551,2550,7391,4715,6896
5854,2700,2736,2737,3805,3581,2942,3580,4100,7371,6840
5855,494,489,475,3794,575,574,572,6016,5489,6460
5856,2692,2809,2811,3871,3551,3553,3550,6710,5870,6579
5857,2755,2756,2606,3843,3142,3141,3009,6327,6574,7409
5858,1602,475,81,1806,6804,550,1849,1851,7623,1817
5859,1604,90,602,3889,1855,722,7530,7338,7658,7464
5860,1117,1106,1171,3849,1379,1534,1533,6924,7350,6207
5861,1691,1693,1692,3762,2186,2576,2489,7312,7311,5218
5862,492,474,76,1805,540,539,501,7587,7586,1815
5863,1707,115,1575,3868,1928,1930,1932,7175,7653,7167
5864,185,637,593,3888,902,904,900,7654,7314,7280
5865,3701,3879,3625,3894,6283,4094,6309,6755,3976,4096
5866,3711,3880,3624,3898,6763,6071,6758,7249,6811,6688
5867,2772,2704,2758,3902,3589,3588,2900,5305,7262,7451
5868,1128,1153,1110,3845,1552,1551,1288,6413,6135,7368
5869,187,2619,685,3861,2965,7640,908,7655,7231,7532
5870,2697,2706,2707,3833,3252,3072,3574,5414,4888,6429
5871,679,626,604,3848,999,768,1000,6965,7323,4918
5872,658,642,595,3823,956,735,954,5702,5911,4530
5873,1722,1762,1680,3852,1938,2559,2560,7202,5185,5080
5874,1116,1110,1162,3865,1285,1550,1549,5103,7159,6263
5875,1656,1706,1658,3856,2451,2450,2449,6259,5044,6680
5876,2781,2608,185,3888,2960,2959,2955,7212,7561,7654
5877,1099,1144,1151,3808,1325,1505,1504,5957,7387,5893
5878,2774,2639,2704,3892,3287,3295,3297,7341,5362,6538
5879,1632,1633,1631,3903,2328,2327,2323,7621,7416,6078
5880,2716,2619,187,3861,2966,2965,2961,7072,7231,7655
5881,1725,1772,1787,3850,2144,2529,2580,7003,6568,4197
5882,610,674,639,3902,1032,1031,844,7479,6246,5304
5883,1604,1601,90,3889,1857,1853,1855,7338,7353,7658
5884,1750,1613,1615,3815,2242,2240,2243,4727,4675,4202
5885,2622,371,21,2826,7199,412,2852,2854,7576,2830
5886,2823,16,2783,372,2828,2839,2841,7614,401,7054
5887,1672,1635,1637,3790,2348,2346,2349,6244,4659,4426
5888,2683,2711,2710,3776,3508,3507,3506,6911,4861,5509
5889,1136,1107,1155,3837,1391,1540,1539,7184,7463,6250
5890,1709,1677,1799,3801,2456,2553,2552,4765,7390,6929
5891,1182,1176,1096,3794,1206,1490,1307,7607,5699,5979
5892,1760,1576,1715,3809,1908,2067,2069,7465,6959,6635
5893,2612,2731,2813,3849,3039,3170,3169,7419,6922,5764
5894,1694,1707,1575,3868,2063,1932,2060,5066,7175,7167
5895,638,641,668,3852,804,1076,1075,5184,7261,6378
5896,1764,36,1804,359,1821,1808,1822,6795,423,7634
5897,1728,1582,1797,3845,2026,2098,2097,6412,7367,6480
5898,607,168,653,3912,849,851,853,7309,7657,7220
5899,1627,1629,1782,3910,2308,2311,2310,7429,7493,5988
5900,168,2767,2745,3912,2904,2909,2908,7657,7273,7473
5901,1140,1154,1109,3863,1548,1547,1276,7148,5599,7378
5902,2601,315,2747,3911,3041,3043,3045,7335,7656,7265
5903,1127,315,1085,3911,1384,1380,1385,7556,7656,7282
5904,684,688,611,3788,720,706,1035,7533,7595,6348
5905,2631,2632,2633,3876,3245,3256,3255,4398,6374,6613
5906,487,478,490,3783,584,514,517,6410,5909,7584
5907,1693,1600,1805,3741,2187,1948,1838,7310,5181,7569
5908,2716,2710,2619,3861,3207,3206,2966,7072,5510,7231
5909,684,602,90,3889,723,722,718,7534,7464,7658
5910,1784,1668,1788,3812,2379,2508,2507,4771,6150,6816
5911,2824,56,487,2712,2833,515,7617,2857,2856,6430
5912,187,685,589,3861,908,910,906,7655,7532,7377
5913,2604,310,311,1084,3028,344,3029,3965,1369,1368
5914,245,246,1080,1593,279,1278,1277,2016,2015,4269
5915,311,312,2761,1141,345,3032,3031,1372,1371,3969
5916,244,245,1140,1742,278,1275,1274,2013,2012,7403
5917,317,318,2760,1136,351,3050,3049,1390,1389,7589
5918,246,247,1116,1712,280,1281,1280,2019,2018,5104
5919,243,244,1109,1585,277,1272,1271,2010,2009,7006
5920,316,317,2615,1107,350,3047,3046,1387,1386,7477
5921,2612,312,313,1106,3034,346,3035,7239,1375,1374
5922,250,1596,1081,249,2027,6128,1290,283,2028,1289
5923,250,1134,1741,251,1292,6906,2031,284,1293,2030
5924,2731,313,314,1117,3037,347,3038,6235,1378,1377
5925,249,1728,1128,248,2024,6124,1287,282,2025,1286
5926,247,248,1110,1582,281,1284,1283,2022,2021,7157
5927,2747,315,316,1127,3043,349,3044,7488,1384,1383
5928,2601,314,315,1085,3040,348,3041,6231,1381,1380
5929,2742,309,310,1120,3025,343,3026,3945,1366,1365
5930,243,1121,242,1723,1269,1268,276,2006,7011,2007
5931,2714,2782,2708,3855,3225,3593,3592,6308,5827,6261
5932,359,373,377,3788,453,395,425,6319,6350,7594
5933,1127,1152,1107,3825,1538,1537,1388,7489,6560,7462
5934,1129,1147,1092,3859,1469,1468,1255,7485,6424,6737
5935,609,163,164,2607,836,197,837,4992,2893,2892
5936,97,96,629,1588,130,740,739,1874,1873,5590
5937,175,174,2595,615,208,2926,2925,870,869,5010
5938,1576,107,108,590,1906,141,1907,6545,773,772
5939,162,161,2776,606,195,2887,2886,831,830,7090
5940,1577,110,111,647,1915,144,1916,6181,782,781
5941,178,177,2596,648,211,2935,2934,879,878,6039
5942,1590,234,233,1091,1979,267,1980,6776,1242,1241
5943,301,300,1126,2609,334,1339,1338,2999,2998,7303
5944,2748,163,162,640,2889,196,2890,7444,834,833
5945,95,96,1729,596,129,1871,1870,737,736,5622
5946,2767,2703,2745,3912,3587,3586,2909,7273,5754,7473
5947,630,101,100,1748,751,134,752,7016,1886,1885
5948,607,167,168,2767,848,201,849,7578,2905,2904
5949,2614,159,158,597,2877,192,2878,6674,822,821
5950,2720,2608,2781,3888,3152,2960,3153,5120,7561,7212
5951,2613,181,180,592,2943,214,2944,6608,888,887
5952,113,114,1594,617,147,1925,1924,791,790,4842
5953,610,165,166,2758,842,199,843,7293,2899,2898
5954,645,99,98,1739,745,132,746,4169,1880,1879
5955,1714,108,109,628,1909,142,1910,4606,776,775
5956,176,175,2733,627,209,2929,2928,873,872,4340
5957,472,485,482,3810,555,554,556,6856,4357,5859
5958,599,103,102,1584,757,136,758,7118,1892,1891
5959,1719,105,106,626,1900,139,1901,7321,767,766
5960,633,166,167,2600,845,200,846,7252,2902,2901
5961,100,99,598,1581,133,749,748,1883,1882,4236
5962,173,172,2738,594,206,2920,2919,864,863,6469
5963,1580,231,230,1122,1970,264,1971,6605,1233,1232
5964,298,297,1102,2599,331,1330,1329,2990,2989,6343
5965,91,92,1595,619,125,1859,1858,725,724,7507
5966,318,319,2602,1086,352,3053,3052,1393,1392,7540
5967,252,1583,1131,251,2033,6202,1296,285,2034,1295
5968,106,107,1760,644,140,1904,1903,770,769,7514
5969,174,173,2779,646,207,2923,2922,867,866,5493
5970,179,178,2737,613,212,2938,2937,882,881,5999
5971,1718,111,112,587,1918,145,1919,5420,785,784
5972,1137,240,241,1591,1262,274,1263,4067,2001,2000
5973,2610,307,308,1139,3019,341,3020,4670,1360,1359
5974,164,165,639,2772,198,840,839,2896,2895,5303
5975,600,98,97,1753,742,131,743,5934,1877,1876
5976,94,95,1757,642,128,1868,1867,734,733,5830
5977,1578,238,1097,239,1995,1256,7474,1994,272,1257
5978,182,183,614,2594,216,894,893,2950,2949,4542
5979,116,115,588,1575,149,797,796,1931,1930,7435
5980,634,181,182,2726,890,215,891,4128,2947,2946
5981,115,114,635,1707,148,794,793,1928,1927,7431
5982,177,176,2732,591,210,2932,2931,876,875,5463
5983,1713,109,110,616,1912,143,1913,4261,779,778
5984,1083,1121,1159,3875,1270,1421,1420,7315,7299,5810
5985,690,612,685,3783,717,1038,911,7582,5910,7531
5986,1790,1745,1673,3814,2532,2399,2533,6978,5985,5873
5987,1579,93,94,595,1864,127,1865,4284,731,730
5988,295,2616,1099,296,2983,5845,1324,329,2984,1323
5989,2808,2764,2687,3869,3524,3408,3525,6421,5709,6718
5990,1693,76,474,1805,1836,539,7603,1838,1815,7586
5991,631,102,101,1726,754,135,755,7127,1889,1888
5992,232,231,1732,1093,265,1974,1973,1236,1235,5776
5993,299,298,1132,2751,332,1333,1332,2993,2992,5725
5994,92,93,1702,620,126,1862,1861,728,727,4319
5995,1701,1690,1662,3883,2133,2480,2469,5705,5686,7033
5996,2818,2615,2760,3837,3186,3051,3187,6834,7366,7546
5997,184,185,593,2781,218,900,899,2956,2955,7420
5998,638,118,117,1762,802,151,803,4684,1937,1936
5999,236,235,1587,1124,269,1986,1985,1248,1247,6957
6000,183,184,643,2741,217,897,896,2953,2952,7417
6001,117,116,641,1722,150,800,799,1934,1933,7436
6002,105,104,604,1592,138,764,763,1898,1897,4946
6003,185,186,637,2608,219,903,902,2959,2958,7194
6004,637,667,593,3888,943,942,904,7314,6094,7280
6005,306,305,1118,2597,339,1354,1353,3014,3013,4020
6006,635,659,588,3868,918,917,798,7243,6193,7240
6007,229,228,1597,1135,262,1965,1964,1227,1226,5602
6008,1734,233,232,1138,1976,266,1977,6021,1239,1238
6009,300,299,1103,2753,333,1336,1335,2996,2995,6053
6010,308,309,2743,1108,342,3023,3022,1363,1362,3940
6011,1083,241,242,1724,1265,275,1266,7459,2004,2003
6012,1746,1672,1786,3874,2350,2526,2525,5441,6245,6281
6013,493,475,489,3794,553,574,533,7624,6460,5489
6014,237,236,1736,1092,270,1989,1988,1251,1250,6732
6015,227,226,1586,1113,260,1959,1958,1221,1220,6216
6016,228,227,1740,1088,261,1962,1961,1224,1223,5665
6017,636,104,103,1730,760,137,761,4388,1895,1894
6018,605,119,118,1589,805,152,806,4034,1940,1939
6019,180,179,2736,624,213,2941,2940,885,884,6694
6020,1717,112,113,623,1921,146,1922,4958,788,787
6021,1629,1627,1628,3910,2308,2303,2309,7493,7429,7497
6022,625,171,172,2611,860,205,861,6526,2917,2916
6023,608,170,171,2749,857,204,858,7161,2914,2913
6024,2763,2692,2811,3871,3427,3550,3549,5497,6710,6579
6025,292,2723,1090,293,2974,4311,1315,326,2975,1314
6026,2695,2728,2674,3860,3466,3465,3454,7553,6556,4756
6027,302,301,1100,2740,335,1342,1341,3002,3001,7162
6028,1721,235,234,1123,1982,268,1983,6721,1245,1244
6029,1133,2754,297,296,5794,2987,1326,1327,2986,330
6030,1735,230,229,1089,1967,263,1968,6587,1230,1229
6031,653,680,607,3912,1017,1016,853,7220,6099,7309
6032,1704,226,225,1112,1955,259,1956,6626,1218,1217
6033,681,169,170,2603,854,203,855,7133,2911,2910
6034,653,168,169,2745,851,202,852,7270,2908,2907
6035,239,240,1119,1720,273,1260,1259,1998,1997,4295
6036,307,2739,306,1087,3017,3016,340,1356,5131,1357
6037,1097,1164,1129,3838,1495,1494,1258,7521,4090,7484
6038,2621,2790,2825,3754,3215,3064,2870,7512,6819,7598
6039,1146,303,302,2606,1344,336,1345,7172,3005,3004
6040,1604,1763,1601,3889,2190,2189,1857,7338,6542,7353
6041,1585,1790,1742,3863,2113,2112,2014,7385,6935,7418
6042,1738,238,237,1129,1991,271,1992,7500,1254,1253
6043,2783,2620,2823,3761,3211,2873,2841,6509,5173,7611
6044,1747,1671,1781,3841,2302,2521,2520,5367,4872,7358
6045,1130,1086,1160,3828,1397,1436,1435,6405,7454,4326
6046,1698,1663,1664,3811,2481,2477,2482,6006,5895,6080
6047,1101,305,304,2757,1350,338,1351,4947,3011,3010
6048,1127,1085,1153,3911,1385,1433,1432,7556,7282,6549
6049,1174,304,303,2755,1347,337,1348,6017,3008,3007
6050,1738,1736,1783,3859,1993,2587,2589,7501,6735,6794
6051,1602,1806,1771,3794,1851,2045,2196,5938,7608,6326
6052,2724,2693,2680,3872,3495,3494,3483,4393,7143,4667
6053,1114,1144,1149,3827,1557,1322,1556,7331,7552,7502
6054,1724,1788,1723,3875,2578,2577,2008,7406,6879,7396
6055,2826,2786,2622,3730,2970,3219,2854,7572,7428,7111
6056,160,159,2721,656,193,2881,2880,825,824,5815
6057,161,160,2598,651,194,2884,2883,828,827,6427
6058,319,320,2722,1130,353,3056,3055,1396,1395,6403
6059,1654,1652,1708,3873,2430,2432,2431,5456,7074,6238
6060,293,2605,1149,294,2977,7480,1318,327,2978,1317
6061,253,1703,1098,252,2036,4022,1299,286,2037,1298
6062,1794,1744,1675,3854,2542,2418,2543,5258,5773,4577
6063,294,2759,1144,295,2980,7386,1321,328,2981,1320
6064,652,10,11,363,707,14,708,5566,397,396
6065,31,30,1145,362,34,1201,1200,420,419,5532
6066,2801,2646,2690,3885,3330,3319,3331,7441,5166,7365
6067,120,119,622,1697,153,809,808,1943,1942,5990
6068,1604,90,91,602,1855,124,1856,7530,722,721
6069,89,90,1601,684,123,1853,1852,719,718,7641
6070,1175,1113,1114,3867,1554,1445,1555,7506,6218,7525
6071,2620,157,156,601,2871,190,2872,5172,816,815
6072,2623,158,157,618,2874,191,2875,5609,819,818
6073,121,120,603,1600,154,812,811,1946,1945,5179
6074,2654,2653,2652,3870,3356,3352,3357,4859,7094,6876
6075,187,188,685,2619,221,909,908,2965,2964,7640
6076,1676,1709,1798,3847,2447,2546,2545,6982,4766,6905
6077,1599,225,224,1095,1952,258,1953,6846,1215,1214
6078,186,187,589,2716,220,906,905,2962,2961,7245
6079,1727,1630,1628,3898,2315,2314,2316,6769,7517,7496
6080,368,19,18,2593,406,25,407,4210,2846,2845
6081,39,38,1574,361,45,1827,1826,430,429,6314
6082,292,1111,2618,291,1311,4702,2972,325,1312,2971
6083,1692,1693,1801,3762,2576,1841,2049,5218,7311,5694
6084,2747,2816,2601,3911,3117,3116,3045,7265,5759,7335
6085,2783,16,17,372,2839,23,2840,7054,401,400
6086,602,684,649,3889,723,992,990,7464,7534,5837
6087,59,58,2592,483,65,2862,2861,522,521,3948
6088,476,79,78,1573,544,85,545,4040,1843,1842
6089,1601,1764,1804,3788,2191,1822,1854,7352,6239,7629
6090,2802,2686,2799,3890,3521,3350,3522,7060,6741,6670
6091,1603,1767,1807,3851,2200,1951,1835,6495,5975,7636
6092,378,1807,1181,3851,7650,7635,7648,7646,7636,7631
6093,2619,2712,2824,3783,3204,2857,2967,7229,6169,7618
6094,1764,37,36,359,1820,43,1821,6795,424,423
6095,56,57,487,2712,63,516,515,2856,2855,6430
6096,61,60,2621,486,67,2868,2867,528,527,7638
6097,2734,2659,2729,3879,3383,3392,3086,4632,7551,3975
6098,1673,1744,1792,3899,2408,2531,2530,5268,5774,7181
6099,1745,1789,1668,3896,2506,2505,2389,5338,6937,5417
6100,2774,2775,2637,3877,3148,3277,3286,6787,6044,7509
6101,1632,1630,1761,3880,2324,2326,2325,7558,7529,6810
6102,589,685,655,3861,910,926,924,7377,7532,5476
6103,69,70,1176,489,73,1205,1204,532,531,5698
6104,488,49,50,683,508,53,509,5749,712,711
6105,2780,2649,2651,3904,3344,3342,3345,6807,7554,6582
6106,253,1115,1598,254,1301,6828,2040,287,1302,2039
6107,474,77,76,1693,538,83,539,7603,1837,1836
6108,255,1771,1096,254,2042,6324,1305,288,2043,1304
6109,478,50,51,612,511,54,512,5558,715,714
6110,71,70,477,1105,74,535,534,1208,1207,5486
6111,1646,1716,1711,3897,2392,2072,2403,5445,4774,6065
6112,475,81,80,1602,550,87,551,6804,1849,1848
6113,321,322,2790,1178,355,3062,3061,1402,1401,6817
6114,2661,2659,2660,3894,3390,3385,3391,3956,7560,7028
6115,1767,224,223,1177,1949,257,1950,6267,1212,1211
6116,290,2786,1094,291,2968,7343,1309,324,2969,1308
6117,320,321,2617,1082,354,3059,3058,1399,1398,6843
6118,2663,2735,2701,3909,3411,3413,3402,4123,4249,4019
6119,371,21,20,2622,412,27,413,7199,2852,2851
6120,2765,2805,2691,3882,3545,3544,3369,7453,5436,7051
6121,2800,2789,2690,3886,3541,3542,3539,4635,5867,7549
6122,2621,2822,2718,3839,2869,3071,3214,7513,6211,5721
6123,2797,2685,2795,3895,3516,3302,3517,7219,6739,7014
6124,1603,41,40,360,1832,47,1833,6493,436,435
6125,2762,2694,2815,3901,3447,3560,3559,6683,5994,7142
6126,2760,2602,2814,3878,3054,3122,3121,7547,7545,6105
6127,2709,2720,2681,3913,3151,3489,3498,5542,4903,7515
6128,2683,2681,2682,3908,3496,3491,3497,6912,6663,7495
6129,2689,2769,2794,3881,3273,3535,3534,7289,6934,6185
6130,1177,1104,1181,3851,1529,1199,1213,6268,5921,7631
6131,374,29,30,1104,416,33,417,5512,1198,1197
6132,9,10,611,373,13,705,704,394,393,5551
6133,378,374,360,3851,418,459,438,7646,5922,6494
6134,4,1807,1181,378,1811,7635,1189,390,7650,7648
6135,7,2825,1183,491,2836,7599,1192,503,7597,7538
6136,8,493,1182,1806,506,7645,1194,1818,7622,7606
6137,376,1180,3,2826,7522,1185,387,7575,7571,2831
6138,688,1804,2,377,7628,1809,695,7593,7633,385
6139,490,690,5,2824,7583,698,497,7616,7620,2834
6140,689,492,6,1805,7602,499,702,7566,7587,1814
6141,1,2823,687,375,2827,7609,693,381,7615,7543
6142,2698,2693,2810,3906,3503,3555,3554,7042,7144,5969
6143,1688,1678,1765,3884,2555,2556,2199,7363,6355,7351
6144,57,58,472,2820,64,519,518,2859,2858,6855
6145,1801,77,78,481,1839,84,1840,5932,542,541
6146,479,80,79,1803,547,86,548,7066,1846,1845
6147,2822,60,59,473,2864,66,2865,6209,525,524
6148,1800,40,39,364,1829,46,1830,7021,433,432
6149,358,20,19,2819,409,26,410,5823,2849,2848
6150,17,18,2821,357,24,2843,2842,404,403,7075
6151,37,38,366,1802,44,427,426,1824,1823,7247
6152,1807,223,4,1181,1813,256,1811,7635,1190,1189
6153,2825,322,7,1183,2838,356,2836,7599,1193,1192
6154,2,89,1804,688,122,1810,1809,695,697,7628
6155,1182,8,1806,255,1194,1818,7606,1196,289,1819
6156,2826,1180,3,290,7571,1185,2831,2832,1187,323
6157,2823,156,1,687,2829,189,2827,7609,694,693
6158,188,5,690,2824,222,698,700,2835,2834,7620
6159,6,121,689,1805,155,703,702,1814,1816,7566
6160,1180,3,31,376,1185,35,1186,7522,387,389
6161,1183,71,7,491,1191,75,1192,7538,504,503
6162,493,69,8,1182,505,72,506,7645,1195,1194
6163,1807,4,41,378,1811,48,1812,7650,390,392
6164,1181,29,4,378,1188,32,1189,7648,391,390
6165,376,3,21,2826,387,28,388,7575,2831,2830
6166,493,8,81,1806,506,88,507,7622,1818,1817
6167,2825,7,61,491,2836,68,2837,7597,503,502
6168,687,11,1,375,692,15,693,7543,382,381
6169,690,5,51,490,698,55,699,7583,497,496
6170,6,49,492,689,52,500,499,702,701,7602
6171,688,2,9,377,695,12,696,7593,385,384
6172,1804,36,2,377,1808,42,1809,7633,386,385
6173,2823,1,16,375,2827,22,2828,7615,381,383
6174,492,76,6,1805,501,82,499,7587,1815,1814
6175,490,5,56,2824,497,62,498,7616,2834,2833
6176,2744,3746,2807,2803,4015,6393,3598,3600,4048,3527
6177,2807,3746,2744,3652,6393,4015,3598,4680,4014,4013
6178,605,3687,667,657,3982,6092,1006,1005,4011,1008
6179,667,3687,605,3662,6092,3982,1006,6093,3981,3980
6180,3909,2664,2665,3705,3960,3410,4082,3961,3959,4079
6181,3909,2665,2664,2663,4082,3410,3960,4123,3409,3404
6182,3697,2700,3907,3638,4099,7659,7326,4098,4097,5904
6183,3697,3907,2700,2669,7326,7659,4099,4256,7612,3431
6184,2667,3907,2700,3638,5902,7659,3430,4148,5904,4097
6185,2667,2700,3907,2669,3430,7659,5902,3428,3431,7612
6186,3729,3865,1171,3654,4273,6870,5619,4278,4280,5616
6187,1171,3865,3729,1080,6870,4273,5619,1405,4274,4270
6188,3838,1118,1172,1164,3989,1441,6363,4090,1512,1496
6189,3838,1172,1118,3769,6363,1441,3989,3991,6362,3986
6190,3834,595,621,620,4289,952,6066,4298,732,953
6191,3834,621,595,3660,6066,952,4289,4288,5879,4285
6192,3834,1579,1754,3660,4287,2081,7095,4288,4286,6062
6193,3834,1754,1579,1702,7095,2081,4287,4320,2080,1866
6194,3817,1625,1626,1624,4441,2294,4697,5003,2290,2295
6195,3817,1626,1625,3618,4697,2294,4441,4377,4608,4440
6196,3697,2672,3793,2670,4458,6987,4883,4500,3444,6682
6197,3697,3793,2672,3665,4883,6987,4458,4460,4882,4456
6198,3830,2656,2691,3672,3921,3367,7050,3918,3920,7093
6199,3830,2691,2656,2806,7050,3367,3921,4021,3379,3378
6200,3781,1591,1772,1720,4072,2140,6867,4251,2002,2141
6201,3781,1772,1591,3655,6867,2140,4072,4071,6863,4068
6202,3781,1137,1163,3655,4070,1560,6419,4071,4069,5112
6203,3781,1163,1137,1119,6419,1560,4070,4296,1559,1264
6204,3795,1642,3710,3625,4484,4940,4255,4485,4483,4941
6205,3795,3710,1642,1640,4255,4940,4484,4695,5374,2372
6206,3911,2817,3640,3825,7266,4431,5761,6727,4999,5000
6207,3911,3640,2817,2816,5761,4431,7266,5759,4430,3568
6208,3817,3720,1685,1752,4527,5642,4652,4526,4524,2288
6209,3817,1685,3720,3631,4652,5642,4527,4653,4650,5055
6210,3833,2785,3725,2697,5210,4106,5613,5414,3510,5535
6211,3833,3725,2785,3636,5613,4106,5210,5209,4105,4104
6212,3796,2726,2713,3651,4131,3082,5858,4147,4160,5577
6213,3796,2713,2726,2594,5858,3082,4131,4538,3081,2951
6214,3806,3751,2796,3635,4749,5607,4574,4576,5204,4572
6215,3806,2796,3751,2752,4574,5607,4749,4750,3604,4751
6216,3830,3652,3850,3716,4018,5537,6552,4168,4167,5539
6217,3830,3850,3652,3622,6552,5537,4018,4010,4214,5233
6218,3818,3895,3642,3799,7080,7660,5116,6142,4913,4583
6219,3818,3642,3895,3664,5116,7660,7080,5117,5115,4786
6220,3757,3642,3895,3799,4743,7660,4912,4910,4583,4913
6221,3757,3895,3642,3664,4912,7660,4743,5057,4786,5115
6222,3844,3715,669,3678,6408,5920,6678,6047,4814,5919
6223,3844,669,3715,3723,6678,5920,6408,6699,6086,6087
6224,3774,3892,3739,2771,4901,6539,7257,4906,4907,6536
6225,3739,3892,3774,3631,6539,4901,7257,6364,4902,4898
6226,3860,2817,3793,2695,7535,4433,6356,7553,3565,5203
6227,3860,3793,2817,3713,6356,4433,7535,6317,4489,4488
6228,3743,1638,3795,1683,5307,6809,4725,4722,2353,4726
6229,3743,3795,1638,3674,4725,6809,5307,4832,4254,5306
6230,3876,3728,3758,2629,5411,7661,4400,4399,5407,4397
6231,3876,3758,3728,3611,4400,7661,5411,5226,6489,5576
6232,3702,3758,3728,2629,4242,7661,4403,4541,4397,5407
6233,3702,3728,3758,3611,4403,7661,4242,6490,5576,6489
6234,3901,3697,3793,2670,7662,4883,6640,5993,4500,6682
6235,3901,3793,3697,3617,6640,4883,7662,6926,4881,4879
6236,3871,3705,3907,2666,5391,5903,5500,5389,5387,5498
6237,3871,3907,3705,3616,5500,5903,5391,5528,6028,5527
6238,3913,3714,3662,3888,4905,6272,7222,5122,5121,6095
6239,3913,3662,3714,3680,7222,6272,4905,4904,6271,4309
6240,3856,1655,3615,1657,6258,4134,4603,4605,2443,4419
6241,3856,3615,1655,3684,4603,4134,6258,4276,4136,4135
6242,3902,609,676,639,4993,1024,6248,5304,841,1025
6243,3902,676,609,3663,6248,1024,4993,4995,5290,4990
6244,3779,3866,2734,2702,6089,5283,4631,5722,6088,3384
6245,2734,3866,3779,3641,5283,6089,4631,4629,5284,4630
6246,3902,2607,2774,3663,4994,3147,7342,4995,4991,6786
6247,3902,2774,2607,2772,7342,3147,4994,5305,3146,2897
6248,3908,3780,2682,2717,4924,6525,7495,5282,5124,3501
6249,3908,2682,3780,3669,7495,6525,4924,4923,6522,4920
6250,3864,3741,1691,3762,5716,6052,7269,5786,5997,7312
6251,3864,1691,3741,3708,7269,6052,5716,5715,6051,4628
6252,3770,623,678,587,5369,912,5393,5370,789,913
6253,3770,678,623,3678,5393,912,5369,5398,6385,4844
6254,3866,615,663,3683,5309,1051,5449,5310,4984,5840
6255,3866,663,615,646,5449,1051,5309,5424,1050,871
6256,3899,3706,3653,3871,5633,4318,6658,5634,5632,5869
6257,3899,3653,3706,3729,6658,4318,5633,6154,5356,5357
6258,3837,3836,3878,2818,6836,6104,7186,6834,6102,6103
6259,3837,3878,3836,3646,7186,6104,6836,7056,6073,6667
6260,3900,3878,3837,3646,6012,7186,6252,6075,6073,7056
6261,3900,3837,3878,1161,6252,7186,6012,6011,6249,6008
6262,3839,494,3639,3754,7348,6014,5821,5820,6520,5548
6263,3839,3639,494,480,5821,6014,7348,6920,6013,573
6264,3867,1586,1704,1113,6057,1960,7663,6218,6216,7102
6265,1704,1112,3867,1113,6626,7524,7663,7102,1222,6218
6266,3867,1112,1704,3694,7524,6626,7663,5288,6789,6788
6267,1588,3686,1756,1729,5593,4656,2126,1875,5623,2125
6268,1588,1756,3686,3800,2126,4656,5593,5679,4655,5244
6269,2592,473,59,483,6210,524,2861,3948,526,522
6270,59,473,2592,2822,524,6210,2861,2865,6209,2866
6271,3840,3912,3846,2703,5755,7209,7103,5753,5754,7207
6272,3846,3912,3840,3649,7209,5755,7103,6462,5918,5916
6273,3865,1153,1110,1162,6138,1551,7159,6263,1434,1550
6274,3865,1110,1153,3845,7159,1551,6138,6140,7368,6135
6275,3881,3635,2787,3782,6366,4573,7290,6439,4998,4996
6276,3881,2787,3635,3685,7290,4573,6366,6186,5588,5587
6277,3830,3850,3672,3655,6552,5758,3918,5924,5771,5770
6278,3672,3850,3830,3622,5758,6552,3918,4009,4214,4010
6279,3653,3863,3753,1154,5600,7664,4155,4831,5599,5682
6280,3653,3753,3863,3691,4155,7664,5600,5583,5521,6944
6281,1158,3753,3863,1154,5901,7664,7379,1429,5682,5599
6282,1158,3863,3753,3691,7379,7664,5901,5900,6944,5521
6283,3874,3882,3681,3672,6190,5144,5442,5787,5142,5140
6284,3681,3882,3874,3634,5144,6190,5442,6058,4435,5640
6285,2639,3835,3877,2637,6998,7002,7393,3284,7061,7509
6286,3877,3835,2639,3667,7002,6998,7393,6615,6999,5361
6287,3872,3736,3829,3669,6121,5428,7255,6120,6117,6701
6288,3872,3829,3736,3621,7255,5428,6121,4306,4590,4812
6289,3861,2712,3644,2710,7230,5381,5349,5510,3205,5807
6290,3861,3644,2712,3783,5349,5381,7230,5844,5242,6169
6291,3861,657,3708,655,7376,4012,5744,5476,925,4623
6292,3861,3708,657,3687,5744,4012,7376,5350,3984,4011
6293,2670,3907,3901,3697,6196,7665,5993,4500,7326,7662
6294,2670,3901,3907,3737,5993,7665,6196,5991,5995,5690
6295,3617,3901,3907,3697,6926,7665,7325,4879,7662,7326
6296,3617,3907,3901,3737,7325,7665,6926,7153,5690,5995
6297,3868,3684,3856,1694,4119,4276,7666,5066,5065,6645
6298,3856,3684,3868,3719,4276,4119,7666,4277,4116,4121
6299,3856,1706,3868,1694,5044,7168,7666,6645,2061,5066
6300,3868,1706,3856,3719,7168,5044,7666,4121,5043,4277
6301,1591,3850,3655,1772,7339,5771,4068,2140,6568,6863
6302,3655,3850,1591,3731,5771,7339,4068,4191,5538,4190
6303,3868,3651,3723,659,4120,4145,7667,6193,4716,5454
6304,3723,3651,3868,3715,4145,4120,7667,6087,6842,6802
6305,3723,660,3868,659,6085,7242,7667,5454,1074,6193
6306,3868,660,3723,3715,7242,6085,7667,6802,6084,6087
6307,3868,662,3796,659,7241,6395,6194,6193,921,4717
6308,3868,3796,662,3719,6194,6395,7241,4121,6396,6157
6309,3888,668,3662,667,7281,6505,6095,6094,946,6093
6310,3888,3662,668,3714,6095,6505,7281,5121,6272,6156
6311,3826,2675,2674,2673,7169,3458,4692,4943,3457,3452
6312,3826,2674,2675,3772,4692,3458,7169,4693,4691,6409
6313,3905,1123,1170,3695,6725,1461,6503,6752,6751,6659
6314,3905,1170,1123,1091,6503,1461,6725,6724,1460,1246
6315,3775,3901,3654,3617,6916,7154,5905,4587,6926,6531
6316,3654,3901,3775,3673,7154,6916,5905,7359,6638,6915
6317,3891,1670,1777,3747,7147,2264,5206,5208,6501,5031
6318,3891,1777,1670,1768,5206,2264,7147,6708,2519,2517
6319,3905,1721,1781,1590,6723,2135,7437,6777,1984,2136
6320,3905,1781,1721,3695,7437,2135,6723,6752,7357,6750
6321,3907,2670,2669,3697,6196,3433,7612,7326,4500,4256
6322,3907,2669,2670,2668,7612,3433,6196,6197,3429,3434
6323,3909,2732,3668,3853,7573,5465,3994,6692,5953,5954
6324,3909,3668,2732,2701,3994,5465,7573,4019,3963,3583
6325,3832,1731,3848,3743,7430,5064,6966,5981,5063,4944
6326,3832,3848,1731,1719,6966,5064,7430,7432,7322,2149
6327,3898,1761,1630,3880,6767,2326,7517,6811,6810,7529
6328,3898,1630,1761,1727,7517,2326,6767,6769,2315,2107
6329,2650,3904,3670,2651,7555,6265,5326,3343,6582,6595
6330,3670,3904,2650,3773,6265,7555,5326,5328,7413,5327
6331,3886,2801,3724,2789,7548,6921,5868,5867,3543,5864
6332,3886,3724,2801,3885,5868,6921,7548,6894,6423,7441
6333,3903,1630,1632,3880,7528,2324,7621,7101,7529,7558
6334,3903,1632,1630,1631,7621,2324,7528,6078,2323,2319
6335,689,488,3741,683,7643,5559,7568,713,5749,5750
6336,689,3741,488,492,7568,5559,7643,7602,7588,510
6337,489,1182,3794,1176,7642,7607,5489,5698,1206,5699
6338,3794,1182,489,493,7607,7642,5489,7624,7645,533
6339,77,3762,474,481,7499,7423,538,542,5933,543
6340,474,3762,77,1693,7423,7499,538,7603,7311,1837
6341,3851,41,1603,360,7647,1832,6495,6494,436,6493
6342,3851,1603,41,1807,6495,1832,7647,7636,1835,1812
6343,1704,3867,1769,1586,7663,4445,2116,1960,6057,2115
6344,1769,3867,1704,3694,4445,7663,2116,5286,5288,6788
*NSET, NSET=X0
1,2,3,4,9,10,11,12,13,14
15,16,17,18,19,20,21,22,23,24
25,26,27,28,29,30,31,32,33,34
35,36,37,38,39,40,41,42,43,44
45,46,47,48,357,358,359,360,361,362
363,364,365,366,367,368,369,370,371,372
373,374,375,376,377,378,379,380,381,382
383,384,385,386,387,388,389,390,391,392
393,394,395,396,397,398,399,400,401,402
403,404,405,406,407,408,409,410,411,412
413,414,415,416,417,418,419,420,421,422
423,424,425,426,427,428,429,430,431,432
433,434,435,436,437,438,439,440,441,442
443,444,445,446,447,448,449,450,451,452
453,454,455,456,457,458,459,460,461,462
463,464,465,466,467,468,469,470,471
*ORIENTATION, NAME=OR1, SYSTEM=RECTANGULAR
0.663413948169,0.383022221559,-0.642787609687,-0.5,0.866025403784,0
*MATERIAL, NAME=PRINT
*ELASTIC, TYPE=ENGINEERING CONSTANTS
3200.0,3200.0,2400.0,0.35,0.3,0.3,1185.1851851851852,900.0
900.0,0.
*DENSITY
1.24e-09
*SOLID SECTION, ELSET=EALL, MATERIAL=PRINT, ORIENTATION=OR1
*BOUNDARY
X0,1
2,2,3
4,3
*STEP
*STATIC
*DLOAD
2145,P1,-10.0
2298,P1,-10.0
2619,P1,-10.0
2927,P1,-10.0
2939,P1,-10.0
3083,P1,-10.0
3226,P1,-10.0
3959,P1,-10.0
3986,P1,-10.0
4250,P1,-10.0
4496,P1,-10.0
4866,P1,-10.0
4884,P1,-10.0
4889,P3,-10.0
4894,P2,-10.0
5053,P1,-10.0
5073,P1,-10.0
5156,P1,-10.0
5200,P3,-10.0
5216,P1,-10.0
5278,P2,-10.0
5309,P3,-10.0
5383,P1,-10.0
5409,P1,-10.0
5481,P1,-10.0
5558,P1,-10.0
5630,P2,-10.0
5632,P4,-10.0
5671,P2,-10.0
5674,P1,-10.0
5675,P1,-10.0
5717,P1,-10.0
5718,P1,-10.0
5730,P1,-10.0
5777,P1,-10.0
5778,P1,-10.0
5808,P1,-10.0
5820,P1,-10.0
5833,P1,-10.0
5855,P1,-10.0
5862,P1,-10.0
5906,P1,-10.0
5957,P1,-10.0
6013,P1,-10.0
6087,P2,-10.0
6088,P1,-10.0
6095,P1,-10.0
6096,P2,-10.0
6103,P2,-10.0
6104,P1,-10.0
6107,P1,-10.0
6109,P1,-10.0
6110,P1,-10.0
6112,P1,-10.0
6144,P1,-10.0
6145,P3,-10.0
6146,P1,-10.0
6147,P3,-10.0
6161,P3,-10.0
6162,P1,-10.0
6166,P1,-10.0
6167,P3,-10.0
6169,P3,-10.0
6170,P1,-10.0
6174,P1,-10.0
6175,P1,-10.0
6269,P3,-10.0
6339,P4,-10.0
*NODE FILE
U
*EL FILE
S,E
*NODE PRINT, NSET=NALL
U
*END STEP
