*NODE, NSET=NALL
1,47,0,0
2,46.90725624,2.951154418,0
3,46.62939096,5.890661978,0
4,46.16750078,8.806921786,0
5,45.52340857,11.6884247,0
6,44.69965627,14.52379874,0
7,43.69949484,17.30185398,0
8,42.52687147,20.0116267,0
9,41.18641396,22.64242268,0
10,39.6834125,25.18385936,0
11,38.02379874,27.62590686,0
12,36.21412241,29.95892752,0
13,34.26152549,32.17371398,0
14,32.17371398,34.26152549,0
15,29.95892752,36.21412241,0
16,27.62590686,38.02379874,0
17,25.18385936,39.6834125,0
18,22.64242268,41.18641396,0
19,20.0116267,42.52687147,0
20,17.30185398,43.69949484,0
21,14.52379874,44.69965627,0
22,11.6884247,45.52340857,0
23,8.806921786,46.16750078,0
24,5.890661978,46.62939096,0
25,2.951154418,46.90725624,0
26,-2.058440087e-13,47,0
27,-2.951154418,46.90725624,0
28,-5.890661978,46.62939096,0
29,-8.806921786,46.16750078,0
30,-11.6884247,45.52340857,0
31,-14.52379874,44.69965627,0
32,-17.30185398,43.69949484,0
33,-20.0116267,42.52687147,0
34,-22.64242268,41.18641396,0
35,-25.18385936,39.6834125,0
36,-27.62590686,38.02379874,0
37,-29.95892752,36.21412241,0
38,-32.17371398,34.26152549,0
39,-34.26152549,32.17371398,0
40,-36.21412241,29.95892752,0
41,-38.02379874,27.62590686,0
42,-39.6834125,25.18385936,0
43,-41.18641396,22.64242268,0
44,-42.52687147,20.0116267,0
45,-43.69949484,17.30185398,0
46,-44.69965627,14.52379874,0
47,-45.52340857,11.6884247,0
48,-46.16750078,8.806921786,0
49,-46.62939096,5.890661978,0
50,-46.90725624,2.951154418,0
51,-47,-2.029660887e-13,0
52,-46.90725624,-2.951154418,0
53,-46.62939096,-5.890661978,0
54,-46.16750078,-8.806921786,0
55,-45.52340857,-11.6884247,0
56,-44.69965627,-14.52379874,0
57,-43.69949484,-17.30185398,0
58,-42.52687147,-20.0116267,0
59,-41.18641396,-22.64242268,0
60,-39.6834125,-25.18385936,0
61,-38.02379874,-27.62590686,0
62,-36.21412241,-29.95892752,0
63,-34.26152549,-32.17371398,0
64,-32.17371398,-34.26152549,0
65,-29.95892752,-36.21412241,0
66,-27.62590686,-38.02379874,0
67,-25.18385936,-39.6834125,0
68,-22.64242268,-41.18641396,0
69,-20.0116267,-42.52687147,0
70,-17.30185398,-43.69949484,0
71,-14.52379874,-44.69965627,0
72,-11.6884247,-45.52340857,0
73,-8.806921786,-46.16750078,0
74,-5.890661978,-46.62939096,0
75,-2.951154418,-46.90725624,0
76,7.485501152e-14,-47,0
77,2.951154418,-46.90725624,0
78,5.890661978,-46.62939096,0
79,8.806921786,-46.16750078,0
80,11.6884247,-45.52340857,0
81,14.52379874,-44.69965627,0
82,17.30185398,-43.69949484,0
83,20.0116267,-42.52687147,0
84,22.64242268,-41.18641396,0
85,25.18385936,-39.6834125,0
86,27.62590686,-38.02379874,0
87,29.95892752,-36.21412241,0
88,32.17371398,-34.26152549,0
89,34.26152549,-32.17371398,0
90,36.21412241,-29.95892752,0
91,38.02379874,-27.62590686,0
92,39.6834125,-25.18385936,0
93,41.18641396,-22.64242268,0
94,42.52687147,-20.0116267,0
95,43.69949484,-17.30185398,0
96,44.69965627,-14.52379874,0
97,45.52340857,-11.6884247,0
98,46.16750078,-8.806921786,0
99,46.62939096,-5.890661978,0
100,46.90725624,-2.951154418,0
101,46.97680834,1.476305677,0
102,46.79141234,4.423090726,0
103,46.42135201,7.352419857,0
104,45.86808781,10.25273235,0
105,45.13380323,13.11258198,0
106,44.22139614,15.92068225,0
107,43.13446741,18.66595086,0
108,41.87730664,21.33755349,0
109,40.45487527,23.92494654,0
110,38.87278699,26.41791876,0
111,37.13728558,28.80663152,0
112,35.25522027,31.08165767,0
113,33.23401872,33.23401872,0
114,31.08165767,35.25522027,0
115,28.80663152,37.13728558,0
116,26.41791876,38.87278699,0
117,23.92494654,40.45487527,0
118,21.33755349,41.87730664,0
119,18.66595086,43.13446741,0
120,15.92068225,44.22139614,0
121,13.11258198,45.13380323,0
122,10.25273235,45.86808781,0
123,7.352419857,46.42135201,0
124,4.423090726,46.79141234,0
125,1.476305677,46.97680834,0
126,-1.476305677,46.97680834,0
127,-4.423090726,46.79141234,0
128,-7.352419857,46.42135201,0
129,-10.25273235,45.86808781,0
130,-13.11258198,45.13380323,0
131,-15.92068225,44.22139614,0
132,-18.66595086,43.13446741,0
133,-21.33755349,41.87730664,0
134,-23.92494654,40.45487527,0
135,-26.41791876,38.87278699,0
136,-28.80663152,37.13728558,0
137,-31.08165767,35.25522027,0
138,-33.23401872,33.23401872,0
139,-35.25522027,31.08165767,0
140,-37.13728558,28.80663152,0
141,-38.87278699,26.41791876,0
142,-40.45487527,23.92494654,0
143,-41.87730664,21.33755349,0
144,-43.13446741,18.66595086,0
145,-44.22139614,15.92068225,0
146,-45.13380323,13.11258198,0
147,-45.86808781,10.25273235,0
148,-46.42135201,7.352419857,0
149,-46.79141234,4.423090726,0
150,-46.97680834,1.476305677,0
151,-46.97680834,-1.476305677,0
152,-46.79141234,-4.423090726,0
153,-46.42135201,-7.352419857,0
154,-45.86808781,-10.25273235,0
155,-45.13380323,-13.11258198,0
156,-44.22139614,-15.92068225,0
157,-43.13446741,-18.66595086,0
158,-41.87730664,-21.33755349,0
159,-40.45487527,-23.92494654,0
160,-38.87278699,-26.41791876,0
161,-37.13728558,-28.80663152,0
162,-35.25522027,-31.08165767,0
163,-33.23401872,-33.23401872,0
164,-31.08165767,-35.25522027,0
165,-28.80663152,-37.13728558,0
166,-26.41791876,-38.87278699,0
167,-23.92494654,-40.45487527,0
168,-21.33755349,-41.87730664,0
169,-18.66595086,-43.13446741,0
170,-15.92068225,-44.22139614,0
171,-13.11258198,-45.13380323,0
172,-10.25273235,-45.86808781,0
173,-7.352419857,-46.42135201,0
174,-4.423090726,-46.79141234,0
175,-1.476305677,-46.97680834,0
176,1.476305677,-46.97680834,0
177,4.423090726,-46.79141234,0
178,7.352419857,-46.42135201,0
179,10.25273235,-45.86808781,0
180,13.11258198,-45.13380323,0
181,15.92068225,-44.22139614,0
182,18.66595086,-43.13446741,0
183,21.33755349,-41.87730664,0
184,23.92494654,-40.45487527,0
185,26.41791876,-38.87278699,0
186,28.80663152,-37.13728558,0
187,31.08165767,-35.25522027,0
188,33.23401872,-33.23401872,0
189,35.25522027,-31.08165767,0
190,37.13728558,-28.80663152,0
191,38.87278699,-26.41791876,0
192,40.45487527,-23.92494654,0
193,41.87730664,-21.33755349,0
194,43.13446741,-18.66595086,0
195,44.22139614,-15.92068225,0
196,45.13380323,-13.11258198,0
197,45.86808781,-10.25273235,0
198,46.42135201,-7.352419857,0
199,46.79141234,-4.423090726,0
200,46.97680834,-1.476305677,0
201,-40.54777611,17.55703428,0
202,39.74536186,-18.80591378,0
203,-20.16140309,-39.11870315,0
204,18.7450249,39.75365503,0
205,-14.34591795,41.72259773,0
206,13.28560627,-41.83915069,0
207,40.94905172,16.04918564,0
208,-41.72333778,-14.3534416,0
209,43.8250924,-2.739355395,0
210,-32.29829713,-31.24675212,0
211,-43.92537947,0.2714042836,0
212,5.338606966,43.74434771,0
213,31.97516236,-30.18289719,0
214,-0.08831349057,-44.00181162,0
215,33.82486278,28.09555058,0
216,-27.48036969,34.40134287,0
217,-36.03830415,27.15422227,0
218,-9.115787492,-43.02815028,0
219,-2.925481401,43.89205209,0
220,43.27585027,8.332632143,0
221,-27.68323519,-34.33489651,0
222,-43.58167562,-5.713033991,0
223,-43.56629798,6.223246318,0
224,-36.36913043,-24.81769406,0
225,18.57245725,-39.77226197,0
226,41.75357144,-13.67392436,0
227,28.0145901,-33.88356955,0
228,-22.30607732,37.9502104,0
229,5.344253414,-43.74158271,0
230,37.05587342,-23.58893525,0
231,13.54438293,41.76657095,0
232,23.57702861,37.09447097,0
233,28.04334888,33.8326391,0
234,38.48707922,21.1387746,0
235,-14.8057705,-41.53837277,0
236,-39.42324287,-19.72292667,0
237,-42.44644892,12.01990967,0
238,-37.71099272,22.77664493,0
239,-3.031896195,-43.68064842,0
240,-31.04213114,32.00383549,0
241,-5.74084619,43.59981981,0
242,-25.3513817,-35.95185518,0
243,2.586979824,44.08841132,0
244,-8.632937067,43.15650237,0
245,-43.14774308,-8.644010003,0
246,43.81251747,2.925457865,0
247,43.13026793,-8.280524879,0
248,23.5222275,-37.08996441,0
249,30.10985817,32.04170669,0
250,33.77905651,-28.09650336,0
251,10.58440905,-42.61905075,0
252,8.050989004,43.20479293,0
253,35.49198083,25.89992448,0
254,42.8057039,10.96180363,0
255,-19.72154345,39.41985694,0
256,-17.51199495,-40.42265334,0
257,-40.68126426,-17.04671148,0
258,-17.0500499,40.67938994,0
259,-41.57871966,14.80966839,0
260,-39.44008489,20.29900732,0
261,-11.49512049,42.5373969,0
262,-42.53418115,-11.50818709,0
263,-12.0009934,-42.38930007,0
264,-22.75569072,-37.59572364,0
265,-37.98926737,-22.25829858,0
266,-43.09543322,9.146272242,0
267,9.356296003,-39.84025638,0
268,2.336860924,42.05527199,0
269,40.85562624,10.42701627,0
270,-25.48878012,-32.22198022,0
271,-40.60923861,-5.391844386,0
272,-36.15485508,20.48460321,0
273,29.7711617,-28.4540467,0
274,28.20884877,29.91679971,0
275,-19.27051421,36.46584377,0
276,-35.00466417,-21.69807786,0
277,-9.447380847,-39.90696339,0
278,-5.354123298,40.66379389,0
279,-40.60205029,6.495969898,0
280,-38.8684431,-13.99051875,0
281,-17.7045664,-37.19091807,0
282,0.5127587692,-41.31368675,0
283,-26.82628969,31.26186427,0
284,-39.44959038,12.25236195,0
285,-11.1699251,39.67337641,0
286,31.5366348,26.4849428,0
287,-29.83590642,-33.99536334,0
288,-43.82678028,-2.703073291,0
289,-34.10216337,28.6767822,0
290,-43.82609968,3.251749364,0
291,-0.1697586629,44.08993286,0
292,-34.53935503,-27.54098494,0
293,-22.83677732,-34.04719723,0
294,-6.093560775,-43.37265195,0
295,-40.22227488,-8.326154394,0
296,43.57967237,5.681128699,0
297,25.83291419,-35.53644109,0
298,42.0017464,13.51244,0
299,32.03841827,30.147165,0
300,7.927978593,-43.23082498,0
301,35.47586629,-25.88332974,0
302,42.51456152,-11.00524022,0
303,10.79913579,42.55551514,0
304,37.0464152,23.57219249,0
305,-24.81141321,36.30712723,0
306,-36.14290745,25.3149773,0
307,-36.48561298,-19.22012924,0
308,2.720052196,-44.08191814,0
309,-12.31277593,-39.30547188,0
310,15.94903351,-40.87958118,0
311,40.83116011,-16.28611633,0
312,30.06167877,-32.11407286,0
313,43.89774852,0.09741941453,0
314,25.85559647,35.52162325,0
315,16.18670035,40.82963177,0
316,21.10065855,-38.49801151,0
317,-16.66302091,37.78294154,0
318,-37.45046691,17.70318746,0
319,38.4776797,-21.24002922,0
320,43.55861267,-5.529551215,0
321,21.20328244,38.5126509,0
322,39.78354744,18.6042556,0
323,4.824392021,40.86048323,0
324,-13.95413322,38.84395615,0
325,-15.04739269,-38.3735559,0
326,-38.5165774,14.99644499,0
327,-37.78156057,-16.63800248,0
328,-39.64967683,-11.18823693,0
329,-20.26839377,-35.70286597,0
330,-8.263832635,40.23909722,0
331,-40.12160205,9.382540261,0
332,6.049016343,37.54751942,0
333,40.16601287,-7.865649772,0
334,-10.80482616,36.81943475,0
335,17.53749841,37.14612069,0
336,-37.33356985,-7.986973245,0
337,-37.72647945,6.500663289,0
338,-32.09520055,-21.0858437,0
339,-20.25208536,-32.32803303,0
340,21.99277259,-34.57219299,0
341,-34.34450809,22.55476532,0
342,-34.3309087,17.71144815,0
343,38.12199052,-15.42317173,0
344,-9.771815878,-36.80451628,0
345,-6.391800866,-40.06986017,0
346,-2.488128573,40.96920484,0
347,-18.7560481,33.53285303,0
348,40.59689812,5.746842211,0
349,34.50432277,-22.06758557,0
350,34.46695962,22.06563179,0
351,17.21695891,-37.08204326,0
352,-36.05877707,-13.58694886,0
353,22.04018553,34.67132617,0
354,11.98837748,-39.06998927,0
355,9.893313964,39.68666236,0
356,40.8945298,0.2228248744,0
357,-15.20479022,-35.26678859,0
358,-36.52514074,12.1236076,0
359,-29.50430676,28.94738469,0
360,-28.89558333,-30.21447703,0
361,-33.46699541,-24.11066981,0
362,-40.83107644,-2.404296054,0
363,-40.84915461,3.512454695,0
364,-0.5485548472,41.13864145,0
365,-2.712989137,-39.87880472,0
366,-24.25614454,33.19023538,0
367,35.85744181,19.66988054,0
368,32.98054644,-24.24887151,0
369,31.35842647,-26.43948903,0
370,2.603985483,-42.07358412,0
371,-33.55914309,-18.68705117,0
372,-13.58427021,35.98724725,0
373,26.242666,-31.64825134,0
374,12.60563939,38.91165298,0
375,26.22382716,31.51681529,0
376,40.37760943,7.667537478,0
377,32.99152089,24.36812687,0
378,7.088650718,40.3650919,0
379,37.14498819,17.17113958,0
380,37.16995522,-17.76074729,0
381,40.82319776,-2.533154277,0
382,6.777787381,-40.45453029,0
383,39.37764926,12.46734006,0
384,39.5783683,-10.47478194,0
385,-35.46437482,14.86610101,0
386,-34.91725231,-16.18887536,0
387,-16.22979649,34.85401528,0
388,29.9992531,28.32670626,0
389,28.12403493,-30.18367236,0
390,-12.52125444,-36.2175358,0
391,-17.73103723,-33.91115689,0
392,-36.80663368,-10.84840895,0
393,-37.23946876,9.276279808,0
394,-21.76351945,34.91029449,0
395,37.81947911,3.105674496,0
396,26.70906384,-28.83699038,0
397,28.52457498,27.04971286,0
398,10.74045783,-36.33354843,0
399,-34.42623155,-7.695111259,0
400,-30.5148343,-18.22441884,0
401,2.12010942,-38.64865698,0
402,30.50027717,-22.66297318,0
403,-33.76792204,19.73970684,0
404,-35.01237286,6.028303627,0
405,-28.2704403,27.04701377,0
406,-32.54137394,14.16676625,0
407,31.9023525,20.62744143,0
408,-1.76971157,38.04219534,0
409,-7.898818676,37.35262755,0
410,37.44570595,9.672909779,0
411,-17.49986877,-30.75843769,0
412,-9.944361623,-33.89845452,0
413,-25.32989097,-28.54349109,0
414,-30.71251107,-23.14920381,0
415,-33.38360462,-13.21367461,0
416,9.041632461,36.83047712,0
417,37.92165503,0.3067331518,0
418,-32.68598142,25.91712648,0
419,-37.95869485,3.587912866,0
420,-40.9118635,0.5476696663,0
421,-10.5258448,33.92441852,0
422,-15.82959708,31.90792331,0
423,-22.73058538,-30.47708383,0
424,-6.855247291,-36.80574928,0
425,-31.70995038,-26.71588783,0
426,-25.99551752,28.36492779,0
427,-23.62143224,30.26830498,0
428,2.155669192,38.55682658,0
429,24.14194111,33.1240139,0
430,-34.48837769,8.681504486,0
431,-15.03136,-32.20180245,0
432,24.17946731,-33.11092478,0
433,4.378035338,-41.21376595,0
434,34.57429925,15.7380698,0
435,38.87710544,-13.01131815,0
436,40.78077674,3.00994437,0
437,19.67667894,-35.89289921,0
438,15.1419437,38.04987945,0
439,14.63667579,-38.12595596,0
440,24.54769678,29.17754167,0
441,35.911976,-19.95357086,0
442,40.57091674,-5.233822349,0
443,19.85689604,36.06184711,0
444,-13.23207714,33.05589707,0
445,-12.48287388,-33.26885737,0
446,-33.71279023,11.37362652,0
447,38.35940681,14.60144437,0
448,29.16983336,25.36824354,0
449,27.44081357,-27.22530689,0
450,-32.17224872,-15.66807605,0
451,-33.98966509,-10.56932297,0
452,-37.64978057,-5.057608274,0
453,-21.18873032,32.01806956,0
454,24.19120733,-26.50577227,0
455,-34.73447613,-4.7501658,0
456,36.67446376,-10.14537935,0
457,-35.24218362,3.370732502,0
458,18.42676646,-33.43070079,0
459,-29.05441838,-20.52276213,0
460,-30.57337556,17.46110662,0
461,-25.50676387,24.36880785,0
462,13.42269189,-35.36714713,0
463,34.87649755,3.037827228,0
464,-7.605449863,34.44454501,0
465,5.351682396,34.58026222,0
466,-37.98600435,0.7181824581,0
467,-31.8189302,7.603844917,0
468,14.39354481,35.22939968,0
469,35.30562882,-17.03620873,0
470,8.091347903,-37.08480425,0
471,-30.04058892,-25.59995972,0
472,32.09788691,-20.42550276,0
473,-29.50060564,23.62125251,0
474,-30.01460589,12.76259197,0
475,25.94751763,24.75313384,0
476,35.79199969,13.06055072,0
477,-22.38879031,-27.06553289,0
478,-23.08206507,28.11915308,0
479,2.061339885,34.97815179,0
480,-0.7271814567,-37.981348,0
481,-29.95156614,-14.60487613,0
482,-31.55509203,-7.361048305,0
483,-14.40566472,-29.34155404,0
484,-9.645153196,-31.31204774,0
485,-4.003532505,-36.37342091,0
486,-7.305774644,-33.85763781,0
487,-19.86968144,-29.05500122,0
488,-4.893545042,37.72520851,0
489,37.86168608,-2.406869462,0
490,-20.99343389,28.97759875,0
491,33.30049753,18.21287506,0
492,16.1580806,34.55551188,0
493,37.58193944,5.979176168,0
494,26.76572809,27.7615425,0
495,-30.82590874,-10.61229542,0
496,24.91690294,-29.44888765,0
497,-37.86459562,-2.155707294,0
498,28.84225313,-24.99186784,0
499,11.80913619,36.05622843,0
500,22.32981122,30.87891835,0
501,-27.82846289,-26.54725794,0
502,18.89035627,34.28793375,0
503,30.42614677,23.04041463,0
504,5.3644115,-37.76264316,0
505,-12.04882846,-30.60577201,0
506,-31.44814889,-12.90116485,0
507,35.45516832,-15.12611585,0
508,22.73742933,-30.75329603,0
509,-31.12157888,10.32109074,0
510,-18.41932128,30.40904554,0
511,37.62669344,-5.043498104,0
512,-10.19823833,31.05004005,0
513,-12.78686445,30.22702732,0
514,-11.53276954,-28.70583506,0
515,-9.837152696,28.31551201,0
516,-31.83059958,-4.436336343,0
517,1.957780248,31.92451295,0
518,-32.52756926,4.871760899,0
519,17.40558841,31.21262943,0
520,-21.40112662,25.01626145,0
521,-28.09958291,14.8032761,0
522,-27.15839856,-17.60465764,0
523,4.239056898,-34.96127434,0
524,28.02427523,-21.02288494,0
525,29.43315791,19.12851724,0
526,-4.537068596,34.78570595,0
527,-34.93305318,-1.938049808,0
528,33.94674335,8.881141956,0
529,-24.89651788,-24.67663023,0
530,-28.32750707,-12.72520355,0
531,9.623290213,-33.56785425,0
532,-1.271678334,-35.79621642,0
533,21.16252477,-28.45495279,0
534,-27.05225942,21.98419452,0
535,13.88746548,32.31957714,0
536,8.353260015,33.94331037,0
537,26.2297243,-23.49910599,0
538,-17.8752612,27.35081396,0
539,27.81820689,21.63611535,0
540,-7.302337952,31.51460463,0
541,34.57626651,5.870923463,0
542,-35.13270453,0.7367449193,0
543,16.04830508,-34.38362624,0
544,-1.314405159,34.99654749,0
545,-19.12060434,-26.13016517,0
546,-16.6911923,-27.70156366,0
547,22.90474688,26.79251717,0
548,-27.87647358,-23.55235424,0
549,-7.639592816,-31.79693729,0
550,34.97563834,0.2921794673,0
551,32.09214366,14.45365806,0
552,-28.64953522,9.441518036,0
553,36.00148344,-12.71342321,0
554,20.49987998,32.18523708,0
555,-30.98625974,21.29626727,0
556,37.2180288,-7.624916206,0
557,-28.32916887,11.44845944,0
558,20.57656766,-32.23005472,0
559,33.20987535,-18.78623275,0
560,34.7043672,-4.975825869,0
561,33.17508095,-12.48916827,0
562,-28.74789664,-9.341013709,0
563,-4.593266168,-33.37383639,0
564,-15.2542032,28.9932845,0
565,31.82278079,5.398486534,0
566,-26.02666199,9.005009731,0
567,-28.75463112,-7.203842618,0
568,25.33707302,19.89735337,0
569,-6.988758834,28.58877243,0
570,-32.04863148,-1.583407699,0
571,-25.9836108,-14.44886754,0
572,-12.90212719,-26.97754302,0
573,-4.250685643,31.82038087,0
574,-21.50018983,-24.24309513,0
575,-1.750430567,-32.9086846,0
576,-16.67499999,24.6955828,0
577,-5.387662756,-30.10164902,0
578,17.63965529,-31.62159853,0
579,12.30807094,-32.61087882,0
580,34.32787488,-7.515541697,0
581,-33.27707743,3.045844096,0
582,-24.94120327,-21.39382831,0
583,-1.152233896,31.97991533,0
584,20.35990542,28.70330091,0
585,-29.07711665,6.473143741,0
586,-25.96471822,12.08778872,0
587,-8.882609959,-28.21745113,0
588,-14.35675898,26.46210694,0
589,23.30645432,22.29764378,0
590,-23.73322004,21.52841097,0
591,32.07613022,0.2593998575,0
592,4.97145959,31.56854978,0
593,21.56111731,-24.07018329,0
594,6.964760935,-34.32153294,0
595,1.48984232,-35.40148671,0
596,11.13366273,33.20209719,0
597,32.15867941,-15.77308285,0
598,29.76301453,-18.56853215,0
599,30.91711689,16.78358214,0
600,33.03627711,11.83840465,0
601,34.90681609,-2.371906102,0
602,-27.5716223,19.19784191,0
603,19.00878244,-30.24505225,0
604,33.86897516,-10.00178662,0
605,-26.90748133,-10.52557943,0
606,-18.3378346,-24.0826661,0
607,-12.17661706,27.67673783,0
608,21.01762352,20.22291073,0
609,-25.36829857,-7.682301669,0
610,-26.16321829,5.906011843,0
611,-23.6571682,11.03396386,0
612,1.75061611,29.09717081,0
613,28.71478875,-13.93553591,0
614,-28.88590102,-4.273000146,0
615,-1.747380467,-29.98256957,0
616,-6.517236801,-25.63221581,0
617,-3.932426418,28.88334212,0
618,15.80742132,28.2260502,0
619,-14.96786087,22.46520578,0
620,3.462254707,-32.26992695,0
621,8.606893319,-30.78592926,0
622,-29.84146148,2.653696423,0
623,31.20785204,-10.09484046,0
624,-19.80880754,-22.25538041,0
625,-24.59350974,-12.22151144,0
626,19.15586536,-26.26302709,0
627,13.13049587,29.61016395,0
628,23.72708858,-21.71056926,0
629,-25.681899,16.56897769,0
630,20.9224091,24.44002876,0
631,27.12199246,17.45455691,0
632,30.21960784,13.7092582,0
633,25.56724577,-19.28931667,0
634,15.25045736,-31.2154359,0
635,31.79085826,-4.980852664,0
636,32.06702506,2.86986719,0
637,-12.98911919,24.4011026,0
638,-9.847641961,25.66885538,0
639,-24.82446905,19.64226353,0
640,1.004171822,-32.66104135,0
641,31.03082369,7.995999733,0
642,7.790262913,31.04896228,0
643,-32.07831368,0.6476705968,0
644,31.98027127,-2.366546315,0
645,-11.68385789,25.86373502,0
646,-19.07281509,22.54439128,0
647,-15.38854085,-23.68459398,0
648,-23.52831851,-17.81791247,0
649,-24.11014265,-15.42107389,0
650,-10.60062054,-25.15971724,0
651,21.43123421,-19.73291249,0
652,-8.156732893,-23.49314096,0
653,29.86736368,4.992429755,0
654,-23.3243315,9.065977328,0
655,-17.1099882,20.51668286,0
656,12.33901169,27.72614772,0
657,-25.91926558,-4.269626035,0
658,-6.954813744,25.59139792,0
659,-26.32882431,2.024560628,0
660,-22.61781299,-14.06520867,0
661,-23.36724072,18.2432694,0
662,18.76469604,22.26946324,0
663,29.16404889,0.4311339283,0
664,19.34073024,-21.88432915,0
665,-13.30994221,20.22655645,0
666,-1.045354077,29.17198663,0
667,-4.100634932,-26.65726996,0
668,18.37109513,26.4186027,0
669,-21.28640604,20.23990435,0
670,17.001302,-28.47660657,0
671,11.34958034,-29.94000191,0
672,4.58551879,28.67245072,0
673,22.98740305,17.98595275,0
674,27.20759041,-16.79087621,0
675,1.028458065,-30.09999649,0
676,29.59771077,11.23185806,0
677,5.951213606,-31.58836425,0
678,31.48894315,-7.555902624,0
679,-23.62892292,14.35008342,0
680,-29.1720402,-1.204785111,0
681,31.17046714,-12.11574569,0
682,10.44510578,30.45497286,0
683,28.84649566,15.24162766,0
684,-21.86981044,-19.84002053,0
685,28.86347408,-4.984168587,0
686,-17.67417671,-20.58236463,0
687,-11.84624321,-22.32062241,0
688,-22.71784671,-10.13066634,0
689,17.27797344,-19.72757455,0
690,-5.249933483,-23.88283616,0
691,-20.58028878,-12.19648405,0
692,-20.66230356,9.772466899,0
693,-15.01948605,18.57873622,0
694,1.15363896,26.58399501,0
695,7.697756062,-28.01844724,0
696,-21.35437937,16.31451825,0
697,28.49506917,-10.34009931,0
698,-20.9907402,-16.07939334,0
699,14.17673736,25.87474045,0
700,9.506036533,27.7876344,0
701,-7.309453214,22.55548401,0
702,-26.19041443,-1.215319175,0
703,-9.286108654,-20.84557082,0
704,28.62502293,-7.619572468,0
705,16.9598879,-24.00505807,0
706,-19.24257452,18.4539517,0
707,18.78761805,18.28876647,0
708,24.67100095,-15.25948056,0
709,-19.39645211,-18.26331645,0
710,-1.238215247,-27.02473029,0
711,29.04384719,-2.295193224,0
712,24.87658529,15.67479595,0
713,26.86554685,13.44262225,0
714,16.30174838,24.21104653,0
715,-10.7560522,22.32899295,0
716,29.42744372,3.121452267,0
717,2.941825402,-30.39344456,0
718,23.21023799,-17.49850768,0
719,-21.83137313,12.19606203,0
720,13.44972857,-29.29297666,0
721,-22.9097299,-6.541541697,0
722,7.394219456,28.14786699,0
723,28.55525699,6.670797069,0
724,-3.138641646,25.62938125,0
725,-14.49611495,-20.4433306,0
726,-23.47638891,3.385058014,0
727,-22.52559173,6.439130314,0
728,-20.29938873,-7.667146264,0
729,26.19288828,4.352084966,0
730,-19.72216036,7.165053917,0
731,14.9808889,-21.61166588,0
732,24.58304134,11.61485335,0
733,-23.40971208,1.341121964,0
734,-17.83898534,11.00973255,0
735,10.88482916,24.46237207,0
736,25.66220032,-10.37585375,0
737,-4.160553015,22.2728314,0
738,-12.56021879,17.13592443,0
739,20.70137399,16.17281231,0
740,1.606281221,-27.51125756,0
741,-7.555947383,19.6850759,0
742,-17.71700471,17.10937321,0
743,21.05382577,-15.66725371,0
744,26.15399467,0.7416881403,0
745,-23.01053134,-4.343159527,0
746,-12.66826229,-19.52357991,0
747,-18.77587715,-14.30697146,0
748,-18.69423685,13.9106679,0
749,14.05776204,-26.52324707,0
750,10.53259797,-27.21272922,0
751,3.973898952,25.92128814,0
752,16.61279392,20.21950707,0
753,26.65884641,9.146921338,0
754,25.53378839,-12.92340738,0
755,4.558668857,-28.65715291,0
756,25.84761218,-4.944105132,0
757,-15.66111541,-18.75838773,0
758,19.26459372,-17.72143949,0
759,-0.9001931307,27.19714393,0
760,-21.46134661,3.825265142,0
761,-5.910580886,-22.09127948,0
762,-10.04856776,18.77995212,0
763,19.01361177,-13.78798165,0
764,-18.34028639,-10.32146801,0
765,-20.03059038,-4.404830729,0
766,-13.6250156,-17.02007265,0
767,-4.882609147,19.49691646,0
768,-14.8903897,12.36660568,0
769,-20.65697909,1.241533951,0
770,6.79132804,-25.35602649,0
771,16.76839561,16.43898805,0
772,2.700449707,-24.2330623,0
773,-3.579335384,-21.34614489,0
774,24.09331744,7.56135785,0
775,12.36381995,-23.22661878,0
776,-16.96162429,8.273317881,0
777,6.983720597,25.23550267,0
778,23.68447544,-12.41148329,0
779,-9.334798908,16.19330974,0
780,-17.16765182,-16.49937752,0
781,-15.19807452,15.33600109,0
782,13.21835671,-19.37688975,0
783,17.16542978,-15.76790609,0
784,26.06520365,-2.163371876,0
785,-1.045599707,21.5053718,0
786,14.09793369,22.09830115,0
787,-6.807809375,-19.54993158,0
788,22.5748037,13.93773582,0
789,-7.519044252,17.67223999,0
790,25.62516285,-7.686324241,0
791,22.59867694,-13.75335767,0
792,4.785042849,-26.07898647,0
793,-23.19883807,-1.448097234,0
794,-10.2790926,-18.12233663,0
795,0.08870582032,24.15635789,0
796,-18.75053901,4.534284681,0
797,16.94899285,-11.9017449,0
798,-4.243170984,-18.65342111,0
799,-7.115632619,14.67350524,0
800,22.70618216,3.714433386,0
801,1.984334009,20.59980841,0
802,-16.02086398,5.6076521,0
803,-17.51668496,-6.99958328,0
804,-11.36203238,-15.48767063,0
805,10.98337411,-20.70238898,0
806,9.24746191,21.26891271,0
807,-14.97459193,-14.71134408,0
808,-2.061760795,18.78403541,0
809,20.2149278,12.31375423,0
810,23.08706491,0.7913813347,0
811,23.07605336,-10.73991251,0
812,-11.53415427,13.58992775,0
813,-14.23946933,9.592133591,0
814,3.061824702,23.25983014,0
815,9.548173927,-24.41210515,0
816,22.1378432,10.02451928,0
817,-3.468512936,-23.95888624,0
818,15.23135997,-17.6713392,0
819,-20.19976745,-1.475974992,0
820,-17.88276205,1.872114987,0
821,22.81716211,-4.7989067,0
822,14.67089926,18.05655381,0
823,20.9161919,-11.98819665,0
824,-5.743290688,17.035431,0
825,-7.77739637,-16.84958127,0
826,-16.57749326,-12.48368702,0
827,5.755946425,-22.66112034,0
828,-5.129556872,-15.89686709,0
829,17.83336932,10.76997829,0
830,-15.07661239,2.958095861,0
831,20.13829586,0.6105616079,0
832,-1.544246664,-18.10761202,0
833,-8.719879311,12.08056871,0
834,-16.27553744,-4.438077575,0
835,0.8629227027,17.91069926,0
836,15.46017517,14.96919512,0
837,4.953087373,19.65722341,0
838,-4.400475471,13.5626751,0
839,1.920517383,-20.59661323,0
840,8.476298074,-21.66521292,0
841,-13.32735008,7.014646797,0
842,-3.130963274,16.1599211,0
843,12.1323396,19.70295264,0
844,18.53376711,14.52170153,0
845,15.04452455,-13.90302023,0
846,11.39625184,-17.56297626,0
847,21.57040331,6.293039416,0
848,23.06968799,-2.062538361,0
849,-12.16247789,10.61177289,0
850,-12.69717331,-13.03404125,0
851,-17.11444668,-0.9238733654,0
852,6.120867761,22.37747327,0
853,-8.881659498,-14.18809019,0
854,21.98315615,-7.915251088,0
855,19.13944938,-9.982223659,0
856,-0.9550533676,-21.02910871,0
857,-14.29577561,-10.73819505,0
858,-16.07005705,-8.590053752,0
859,-2.352976014,-15.2720662,0
860,-12.31100399,4.387905694,0
861,3.776429838,16.96367304,0
862,-11.79416823,-9.183435882,0
863,-6.055223663,10.67645905,0
864,20.15902374,-2.069009426,0
865,19.65198178,-6.619825754,0
866,-12.61631188,-2.562018166,0
867,7.819357607,18.54321904,0
868,1.222197891,-17.62091618,0
869,-13.64208705,-6.887431072,0
870,4.743687351,-19.81301512,0
871,-10.34096971,8.919242861,0
872,-6.184780541,-13.18766589,0
873,14.81798375,-10.16639811,0
874,10.11859711,-18.94194574,0
875,19.69045916,8.427717143,0
876,13.09369054,15.18559519,0
877,19.86270545,3.252189908,0
878,-10.19836493,-11.67076563,0
879,16.37952995,13.16384524,0
880,-14.03533977,0.2394337453,0
881,-0.2474307703,15.23100941,0
882,-1.329889279,12.56029744,0
883,-0.8202049747,-24.03707887,0
884,-3.312596391,-12.49715035,0
885,1.753153345,11.57122319,0
886,17.09428711,2.935256621,0
887,0.5083117765,-14.76276248,0
888,15.28974873,9.292759184,0
889,11.13557576,-13.95343135,0
890,6.579073255,15.89712492,0
891,-9.606546624,5.815312028,0
892,-7.438090989,-10.57899151,0
893,-2.129420497,9.843097624,0
894,-11.14121079,1.738826325,0
895,10.49656457,17.15057305,0
896,13.04274744,-12.11770215,0
897,2.701210308,14.25707265,0
898,17.22902099,-4.63837369,0
899,16.99205601,-7.580261664,0
900,17.41751848,-2.238454051,0
901,3.968004804,-17.02629037,0
902,19.625559,5.203395241,0
903,7.731108648,-18.5130054,0
904,-10.70396848,-5.295549232,0
905,19.94228869,-4.665828365,0
906,-7.874006592,8.830535991,0
907,14.0182528,12.06108769,0
908,-0.322091347,-11.93540392,0
909,11.01841649,11.02685815,0
910,9.315897038,-11.9508713,0
911,15.23418013,-4.538411942,0
912,4.676706697,10.49563485,0
913,3.419181466,-14.25219493,0
914,9.164504882,14.69127682,0
915,-5.257044307,8.160608756,0
916,6.033565993,-16.55335298,0
917,17.11807846,6.179953985,0
918,13.09402801,-9.030385774,0
919,5.527085053,13.22121778,0
920,17.30486113,0.2647880116,0
921,11.02137862,13.70704515,0
922,-6.810416901,-3.750913947,0
923,-4.46986943,-9.794449004,0
924,-9.451619703,-0.8675999444,0
925,13.20165721,-15.78128709,0
926,0.9614936982,8.848741986,0
927,-7.073942535,7.112696752,0
928,-8.403050654,3.328993266,0
929,-1.38694479,-9.169065571,0
930,-2.492104858,6.930688854,0
931,14.26027808,2.408976474,0
932,7.417677361,9.53957316,0
933,-5.747516218,-7.0807621,0
934,8.16017059,12.17660532,0
935,2.760749192,-11.32465345,0
936,-6.701596234,1.021974294,0
937,12.62244433,7.990330883,0
938,6.772477297,-13.9857069,0
939,11.38073409,-10.2174329,0
940,-5.78022069,4.956016828,0
941,13.38509194,-6.420001229,0
942,14.86422943,-2.70856465,0
943,9.381167573,-15.93602542,0
944,3.867254327,7.707982957,0
945,1.703671816,-8.445244004,0
946,-2.594633975,4.345237776,0
947,5.811042332,-10.65288773,0
948,9.390180814,-7.631751377,0
949,12.20251033,-3.431882083,0
950,9.418891303,9.007637041,0
951,-4.291929081,2.974462182,0
952,14.57097129,-0.2236845698,0
953,13.66401601,5.188525709,0
954,-2.648668259,-6.470343955,0
955,0.1815896228,6.16609618,0
956,-8.889365835,-7.989723809,0
957,-4.384445755,-0.8871247667,0
958,2.794232697,5.130983987,0
959,0.3385748465,-5.783341287,0
960,11.62347943,1.729727912,0
961,-0.8258892934,3.694551102,0
962,7.056937007,6.076674819,0
963,11.87836783,-0.7703285042,0
964,10.07701759,6.930957791,0
965,-3.579057662,-4.403058286,0
966,-2.329773595,1.432928083,0
967,1.541860732,2.784933335,0
968,9.771806286,1.206060221,0
969,2.634638383,-5.158042818,0
970,-1.146071778,-2.749806882,0
971,5.596857478,3.811190707,0
972,9.188460631,-3.786482605,0
973,10.98923664,4.264400254,0
974,0.3269192507,0.3542506601,0
975,8.751351627,2.938056019,0
976,5.024667649,-7.0126681,0
977,3.269179479,-0.03729965403,0
978,6.534706342,0.4419742168,0
979,8.928403693,-1.198834918,0
980,2.857017377,-2.912880635,0
981,8.027132059,-10.20149368,0
982,5.990752396,-3.397692186,0
983,3.405701345,2.100433785,0
984,-39.12950959,-5.22472633,0
985,-37.7571881,-3.606657784,0
986,-39.34783603,-2.280001674,0
987,-40.72015752,-3.89807022,0
988,-2.019417388,26.41326259,0
989,-0.9727736039,28.18456528,0
990,-2.488890248,29.02766438,0
991,-3.535534032,27.25636168,0
992,1.423628356,19.25525384,0
993,0.4693671509,21.0525901,0
994,-1.553680251,20.14470361,0
995,-0.5994190463,18.34736734,0
996,-7.03365689,-22.79221022,0
997,-6.35919513,-20.82060553,0
998,-8.046959015,-20.1977512,0
999,-8.721420774,-22.16935589,0
1000,-14.95881225,-5.662754323,0
1001,-12.17302777,-6.091490152,0
1002,-11.66014018,-3.928783699,0
1003,-14.44592466,-3.50004787,0
1004,25.62094388,10.38088734,0
1005,23.36044227,10.81968631,0
1006,23.11558032,8.792938563,0
1007,25.37608193,8.354139594,0
1008,12.79380113,-4.925941656,0
1009,10.69548548,-3.609182344,0
1010,9.289320722,-5.709116991,0
1011,11.38763638,-7.025876303,0
1012,-28.88552297,25.33413314,0
1013,-28.88737353,27.99719923,0
1014,-31.09514409,27.43225559,0
1015,-31.09329353,24.7691895,0
1016,-10.56617593,-21.58309662,0
1017,-11.22343188,-23.74016983,0
1018,-9.378676718,-24.3264291,0
1019,13.21079099,-24.87493293,0
1020,10.95599694,-23.81936197,0
1021,10.04038595,-25.81241719,0
1022,12.29518001,-26.86798815,0
1023,-23.45394525,24.69253465,0
1024,-21.19728025,26.9969301,0
1025,-22.03774948,28.54837591,0
1026,-24.29441447,26.24398047,0
1027,-3.310851338,2.203695133,0
1028,-5.496762658,1.998218238,0
1029,-5.543020994,0.06742476375,0
1030,-3.357109675,0.2729016583,0
1031,-18.65710706,-1.199924178,0
1032,-17.49860436,0.4741208106,0
1033,-19.26987057,1.556824469,0
1034,-20.42837327,-0.1172205204,0
1035,-29.17188738,12.1055257,0
1036,-27.14694355,11.76812408,0
1037,-27.03215057,13.44553241,0
1038,-29.0570944,13.78293403,0
1039,-11.03396579,-1.714809055,0
1040,-10.29641525,0.4356131904,0
1041,-12.58827528,0.9891300353,0
1042,-13.32582583,-1.16129221,0
1043,18.58565484,-4.652101027,0
1044,20.05065621,-3.367418895,0
1045,18.78827111,-2.153731738,0
1046,17.32326973,-3.43841387,0
1047,-27.15555894,-13.58703554,0
1048,-25.28856027,-13.33518949,0
1049,-25.75049554,-11.37354544,0
1050,-27.6174942,-11.62539149,0
1051,27.37407263,5.511441017,0
1052,27.6070517,7.908859203,0
1053,25.14310286,5.956721408,0
1054,-42.32892836,-2.553684672,0
1055,-43.70422795,-4.208053641,0
1056,-42.09545711,-5.552439188,0
1057,-24.13901423,-7.111921683,0
1058,-22.96013062,-5.442350612,0
1059,-24.46489846,-4.306392781,0
1060,-25.64378207,-5.975963852,0
1061,1.798049365,0.158475503,0
1062,3.337440412,1.031567065,0
1063,2.473781038,2.44268356,0
1064,0.9343899911,1.569591997,0
1065,-18.20562078,15.51002056,0
1066,-18.47978962,17.78166246,0
1067,-20.29847695,17.38423497,0
1068,-20.02430811,15.11259307,0
1069,-2.765258766,-1.818465824,0
1070,-0.4095762637,-1.197778111,0
1071,-1.001427172,0.8935893717,0
1072,-16.47968722,2.415105424,0
1073,-15.54873818,4.282873981,0
1074,-17.3857015,5.070968391,0
1075,-18.31665053,3.203199834,0
1076,-29.33647923,16.13219136,0
1077,-31.55737475,15.81393643,0
1078,-31.27798991,13.46467911,0
1079,20.38598223,-20.80862082,0
1080,20.45092378,-22.97725622,0
1081,22.64410295,-22.89037627,0
1082,22.5791614,-20.72174088,0
1083,-21.99346917,5.132197728,0
1084,-20.10594281,4.179774912,0
1085,-19.23634969,5.849669299,0
1086,-21.12387605,6.802092116,0
1087,17.65108136,15.48034479,0
1088,19.61757055,15.34725692,0
1089,19.74449602,17.23078939,0
1090,17.77800683,17.36387726,0
1091,2.74582788,-4.035461726,0
1092,0.8554727993,-2.831343758,0
1093,-0.4037484658,-4.266574085,0
1094,1.486606615,-5.470692053,0
1095,-7.552323444,2.17548378,0
1096,-5.036074885,3.965239505,0
1097,-7.091635672,4.142505047,0
1098,-8.412955765,28.45214222,0
1099,-7.145548393,30.05168853,0
1100,-8.750288139,31.28232234,0
1101,-10.01769551,29.68277603,0
1102,-29.5767079,-11.66874949,0
1103,-27.82768898,-9.933296572,0
1104,-29.78690269,-9.976654566,0
1105,-7.537495818,18.67865794,0
1106,-6.63116747,17.35383549,0
1107,-5.312949918,18.26617373,0
1108,-6.219278265,19.59099618,0
1109,20.56130277,-8.948737373,0
1110,20.02782064,-10.98521016,0
1111,21.99612263,-11.36405458,0
1112,22.52960475,-9.3275818,0
1113,-28.28940926,-32.27468677,0
1114,-30.59694023,-30.73061457,0
1115,-31.06710177,-32.62105773,0
1116,-28.75957081,-34.16512992,0
1117,-6.811435765,-11.8833287,0
1118,-8.818227958,-11.12487857,0
1119,-9.540012212,-12.92942791,0
1120,-7.53322002,-13.68787804,0
1121,-6.27896656,-5.415838023,0
1122,-4.198092239,-6.775553028,0
1123,-3.11386296,-5.43670112,0
1124,-5.194737281,-4.076986116,0
1125,-25.40933554,-30.38273565,0
1126,-26.57917693,-27.54537451,0
1127,-28.36202311,-28.38086749,0
1128,-27.19218172,-31.21822862,0
1129,-26.05484,-2.742472605,0
1130,-23.10468471,-2.89562838,0
1131,-24.69462625,-1.331708204,0
1132,-23.35174866,29.19372903,0
1133,-24.80847488,29.31661639,0
1134,-25.7511407,26.36686782,0
1135,-7.453893908,32.97957482,0
1136,-9.065647332,34.18448177,0
1137,-10.36204156,32.48722929,0
1138,-7.47268373,-32.82728755,0
1139,-8.642373006,-31.55449252,0
1140,-9.79475741,-32.60525113,0
1141,-8.625068134,-33.87804617,0
1142,-13.61739203,-23.0026082,0
1143,-14.14533402,-25.3310685,0
1144,-11.75137387,-26.06863013,0
1145,-13.58218862,-19.98345526,0
1146,-14.9423279,-22.06396229,0
1147,-12.25725275,-20.92210116,0
1148,10.19543285,26.12500324,0
1149,8.450127994,27.9677507,0
1150,7.188970027,26.69168483,0
1151,8.93427488,24.84893737,0
1152,-21.05916285,2.533399546,0
1153,-27.3380986,9.223263883,0
1154,-28.86332593,7.957330888,0
1155,-27.62016747,6.189577792,0
1156,-26.09494014,7.455510787,0
1157,-5.758054045,14.11809017,0
1158,-3.765719372,14.8612981,0
1159,-4.437126981,16.59767605,0
1160,-6.429461654,15.85446812,0
1161,-17.45888983,-11.40257751,0
1162,-15.43663444,-11.61094104,0
1163,-15.18291633,-9.664124403,0
1164,-17.20517172,-9.455760879,0
1165,-5.460592626,28.73605727,0
1166,-4.091556031,30.3518615,0
1167,-5.776511797,31.66749275,0
1168,-22.55968784,-28.77130836,0
1169,-23.6426541,-25.87108156,0
1170,-25.11320443,-26.61006066,0
1171,-24.03023817,-29.51028746,0
1172,-28.82026607,-5.738421382,0
1173,-27.06146484,-7.443072144,0
1174,-27.4025833,-4.27131309,0
1175,20.59798116,5.748217328,0
1176,19.74413222,4.227792575,0
1177,21.2844438,3.483311647,0
1178,22.13829274,5.003736401,0
1179,6.273637232,-24.00857342,0
1180,8.169750983,-24.88406582,0
1181,9.012236,-23.03865903,0
1182,7.11612225,-22.16316663,0
1183,5.989869123,28.41015886,0
1184,4.279708871,27.29686943,0
1185,5.478809775,25.5783954,0
1186,-30.27321895,30.47561009,0
1187,-32.57214726,30.34030884,0
1188,-33.39407239,27.29695434,0
1189,-14.29980377,-15.86570836,0
1190,-12.49352399,-16.25387164,0
1191,-12.02960285,-14.26085594,0
1192,-13.83588262,-13.87269267,0
1193,-16.49124414,6.940484991,0
1194,-18.34189233,7.719185899,0
1195,-34.96138856,20.11215503,0
1196,-32.37709089,20.51798706,0
1197,-32.66538392,21.92551629,0
1198,-35.24968159,21.51968427,0
1199,-5.12383417,39.1945012,0
1200,-6.808977967,40.45144555,0
1201,-8.081325656,38.79586239,0
1202,-6.396181859,37.53891803,0
1203,-3.331628306,37.88370192,0
1204,-2.128920071,39.50570009,0
1205,-3.921125936,40.81649936,0
1206,-23.36397782,-14.74314128,0
1207,-23.81923058,-16.61949318,0
1208,-22.25952935,-16.9486529,0
1209,-21.8042766,-15.072301,0
1210,-29.45928907,4.563420082,0
1211,-28.08514289,2.339128526,0
1212,-26.2460213,3.965286236,0
1213,3.332102367,-20.20481417,0
1214,4.355846078,-18.41965275,0
1215,2.595101347,-17.32360328,0
1216,1.571357637,-19.1087647,0
1217,7.592241185,29.59841464,0
1218,6.380861252,31.30875603,0
1219,4.77848919,30.12050025,0
1220,-24.91886057,-23.03522927,0
1221,-21.94449007,-25.65431401,0
1222,-23.22069655,-22.81846172,0
1223,18.15030907,-22.94469361,0
1224,18.05787663,-25.13404258,0
1225,20.35849133,-25.16660519,0
1226,-2.637605419,-36.08481867,0
1227,-3.358260821,-38.12611282,0
1228,-1.720085297,-38.93007636,0
1229,-0.9994298951,-36.88878221,0
1230,5.700349369,36.06389082,0
1231,6.852471205,34.26178629,0
1232,8.697446238,35.38689375,0
1233,7.545324402,37.18899827,0
1234,-11.2517238,9.765507878,0
1235,-13.20097361,10.10195324,0
1236,-13.78340971,8.303390194,0
1237,-11.8341599,7.966944829,0
1238,-7.69992338,-26.92483347,0
1239,-7.336984847,-24.56267838,0
1240,-9.741615251,-26.68858419,0
1241,10.94108916,-28.57636557,0
1242,12.39965445,-29.61648929,0
1243,13.7537453,-27.90811187,0
1244,13.50898068,30.96487055,0
1245,12.51056411,32.76083716,0
1246,10.78938426,31.82853503,0
1247,11.78780082,30.03256841,0
1248,-16.36468752,11.68816911,0
1249,-17.40030481,9.641525214,0
1250,-15.60054681,8.932725736,0
1251,-14.56492951,10.97936963,0
1252,-9.609598363,-38.35573984,0
1253,-7.919590856,-39.98841178,0
1254,-6.623524078,-38.43780473,0
1255,-8.313531585,-36.80513278,0
1256,16.60650486,29.71933982,0
1257,17.08925823,27.32232645,0
1258,19.36550028,27.56095181,0
1259,18.88274691,29.95796517,0
1260,7.207424231,-7.322209738,0
1261,7.589606514,-3.592087395,0
1262,5.507710022,-5.205180143,0
1263,-17.67668521,-13.39532924,0
1264,-17.97176449,-15.40317449,0
1265,-16.07112188,-15.6053608,0
1266,-15.7760426,-13.59751555,0
1267,38.4116776,11.07012492,0
1268,38.86852804,13.53439222,0
1269,37.07570325,13.83099755,0
1270,36.61885282,11.36673025,0
1271,-2.603076361,21.8891016,0
1272,-4.521581081,20.88487393,0
1273,-3.472184971,19.14047594,0
1274,-0.359461201,-30.04128303,0
1275,1.317369643,-28.80562703,0
1276,0.1840329868,-27.26799393,0
1277,-1.492797857,-28.50364993,0
1278,-11.47367744,-18.82295827,0
1279,-10.82056249,-16.80500363,0
1280,-13.14663894,-18.27182628,0
1281,13.8822949,16.6210745,0
1282,14.27693285,15.07739516,0
1283,16.11428539,15.70409158,0
1284,15.71964743,17.24777093,0
1285,3.202040055,-31.33168575,0
1286,4.706734156,-31.9291456,0
1287,5.254941231,-30.12275858,0
1288,3.75024713,-29.52529873,0
1289,-13.69380819,3.673000778,0
1290,-12.81917704,5.701276246,0
1291,-14.67410703,6.311149448,0
1292,-6.427081612,6.03435679,0
1293,-8.34024458,6.46400439,0
1294,-9.004798639,4.572152647,0
1295,-37.91315997,25.24941833,0
1296,-36.0906058,26.23459979,0
1297,-37.03105144,27.39006456,0
1298,6.38622249,19.10022123,0
1299,8.533409758,19.90606588,0
1300,7.684164835,21.82319299,0
1301,5.536977567,21.01734834,0
1302,11.36441765,-37.70176885,0
1303,13.31252664,-38.59797261,0
1304,14.02968384,-36.74655154,0
1305,12.08157486,-35.85034778,0
1306,6.45798727,-32.95494859,0
1307,3.850655802,-33.61560064,0
1308,5.601908916,-34.64140364,0
1309,-4.39387712,33.30304341,0
1310,-6.07125923,34.61512548,0
1311,-2.596362035,17.47197826,0
1312,-1.689197022,15.69546526,0
1313,0.3077459662,16.57085434,0
1314,-7.75213427,35.89858628,0
1315,-9.35182242,37.08603115,0
1316,-10.66533548,35.37192664,0
1317,26.57763995,20.76673436,0
1318,26.22953274,18.67595514,0
1319,28.27757518,18.29153707,0
1320,28.6256824,20.38231629,0
1321,23.8041595,-7.800787664,0
1322,24.36912684,-10.55788313,0
1323,25.64368158,-9.031088996,0
1324,12.73475378,28.66815584,0
1325,13.25787453,26.80044409,0
1326,14.99207934,27.05039532,0
1327,14.46895859,28.91810708,0
1328,-0.8545180684,-10.55223474,0
1329,-2.92840711,-9.481757287,0
1330,-3.89123291,-11.14579968,0
1331,-1.817343869,-12.21627713,0
1332,-5.108692824,-8.437605552,0
1333,-2.017806524,-7.819704763,0
1334,-8.131018302,-2.309256945,0
1335,-8.757192692,-4.523231589,0
1336,-5.525490179,-19.10167635,0
1337,-4.686363928,-17.2751441,0
1338,-6.453476621,-16.37322418,0
1339,-7.292602873,-18.19975643,0
1340,-12.21744837,-27.84168904,0
1341,-10.20768975,-28.4616431,0
1342,-19.63819391,26.18353771,0
1343,-20.23697086,23.78032637,0
1344,-17.87390754,23.61998704,0
1345,-17.2751306,26.02319838,0
1346,17.1105385,-6.109317677,0
1347,18.32201889,-7.100043709,0
1348,19.79713523,-5.642827059,0
1349,-2.36256472,-3.576432584,0
1350,-1.155046706,-6.126842621,0
1351,20.34791397,-18.72717599,0
1352,18.27128358,-18.72450702,0
1353,18.30935184,-20.80595185,0
1354,-14.55597608,1.598764803,0
1355,-11.72610739,3.06336601,0
1356,-22.69906447,-18.8289665,0
1357,-20.63313127,-19.05166849,0
1358,-20.19359615,-17.1713549,0
1359,32.5384136,-10.04831354,0
1360,31.18915959,-11.10529307,0
1361,32.17277404,-12.30245698,0
1362,33.52202806,-11.24547745,0
1363,3.829653016,-6.085355459,0
1364,1.021123331,-7.114292646,0
1365,3.364169733,-7.728956052,0
1366,-27.50368476,23.99503018,0
1367,-27.13297891,27.70597078,0
1368,-5.429389898,-36.5895851,0
1369,-4.298399337,-34.87362865,0
1370,-5.949520406,-33.6157371,0
1371,-7.080510967,-35.33169355,0
1372,36.38425109,-2.389387782,0
1373,34.80559164,-3.673865986,0
1374,36.16553032,-5.009661986,0
1375,37.74418976,-3.725183783,0
1376,36.34798833,3.071750862,0
1377,34.92606794,1.665003348,0
1378,36.44864668,0.2994563096,0
1379,37.87056707,1.706203824,0
1380,-9.032752708,22.44223848,0
1381,-7.132133479,24.07344096,0
1382,-8.401227852,25.63012665,0
1383,-10.30184708,23.99892416,0
1384,-19.67808296,-13.25172775,0
1385,-19.46028758,-11.25897603,0
1386,-7.135136357,-29.15955008,0
1387,-9.263881578,-29.76474944,0
1388,-6.513627786,-30.94929316,0
1389,21.84438852,17.07938253,0
1390,21.63808884,15.05527407,0
1391,23.7256945,14.80626589,0
1392,23.93199417,16.83037435,0
1393,-43.87607987,-1.215834504,0
1394,-45.46268974,0.1357021418,0
1395,-45.36701826,-2.827113855,0
1396,14.65400076,10.67692344,0
1397,16.56155902,10.03136874,0
1398,17.10644963,11.96691177,0
1399,15.19889137,12.61246647,0
1400,-35.07023376,27.91550223,0
1401,-34.41444444,25.61605189,0
1402,15.19984103,23.15467384,0
1403,15.3553638,21.15890411,0
1404,17.68874498,21.24448516,0
1405,17.53322221,23.24025488,0
1406,-25.99569011,10.54639922,0
1407,-24.67549675,9.03549353,0
1408,-23.49074985,10.0499706,0
1409,-24.81094321,11.56087629,0
1410,-5.656133985,9.418533901,0
1411,-3.874574582,7.545648805,0
1412,-2.310762677,8.386893239,0
1413,-4.09232208,10.25977834,0
1414,8.076822435,-14.96086616,0
1415,10.25837167,-14.94472839,0
1416,10.2257364,-12.95215132,0
1417,8.044187167,-12.9682891,0
1418,-25.04687673,-14.93497072,0
1419,-23.60566137,-13.14336006,0
1420,-4.744958135,-21.71871218,0
1421,-3.911253184,-19.999783,0
1422,-29.1395366,-13.66503984,0
1423,-28.55498235,-16.10476689,0
1424,-26.57100468,-16.02676259,0
1425,-4.552395001,-39.97433245,0
1426,-21.12923588,-28.06026706,0
1427,-19.49514289,-27.59258319,0
1428,-20.31039709,-25.18663015,0
1429,-13.65389596,-28.15954853,0
1430,-16.03986657,-25.69307882,0
1431,-15.54842851,-28.52155885,0
1432,-1.729654888,11.20169753,0
1433,-2.865182375,13.06148627,0
1434,-5.227849567,12.11956708,0
1435,-12.71812764,-8.035433477,0
1436,-10.34176703,-8.586579845,0
1437,-9.796667159,-6.642636521,0
1438,-6.971786289,27.09008517,0
1439,-5.046727695,25.61038958,0
1440,-9.858088751,-35.3514854,0
1441,20.1486598,-0.7292239088,0
1442,18.7215785,0.4376748097,0
1443,17.36118981,-0.9868330198,0
1444,23.57892252,12.77629458,0
1445,25.7242941,12.5287378,0
1446,25.87106607,14.5587091,0
1447,-26.04980091,-19.49924298,0
1448,-28.83661643,-17.91453824,0
1449,-29.78462634,-19.37359048,0
1450,-26.99781083,-20.95829522,0
1451,-37.92529998,-0.718762418,0
1452,-39.44893393,0.6329260622,0
1453,-40.87146997,-0.9283131937,0
1454,-17.09553054,-29.23000067,0
1455,-17.90589832,-26.91586442,0
1456,-18.6847751,-29.90671945,0
1457,-20.26449028,19.34692803,0
1458,-22.32682338,19.24158688,0
1459,-22.36081005,17.27889383,0
1460,-18.15306391,-4.421454152,0
1461,-20.16498956,-6.035988496,0
1462,-18.90803684,-7.333364772,0
1463,-16.8961112,-5.718830427,0
1464,-35.12727824,4.699518065,0
1465,-34.25963053,3.208288299,0
1466,-32.90232335,3.958802498,0
1467,-33.76997106,5.450032263,0
1468,15.67728259,2.672116547,0
1469,17.10618278,4.557605303,0
1470,15.39104723,5.684239847,0
1471,13.96214704,3.798751092,0
1472,12.16861648,-14.86735922,0
1473,14.12309088,-14.84215366,0
1474,14.04363599,-13.01036119,0
1475,12.0891616,-13.03556675,0
1476,8.071761464,32.49613633,0
1477,5.161570993,33.074406,0
1478,29.85146061,-10.21746988,0
1479,31.34839759,-8.82537154,0
1480,30.05698304,-7.587737546,0
1481,28.56004605,-8.979835888,0
1482,15.9703884,-22.80836197,0
1483,13.67235442,-22.41914233,0
1484,15.50882497,-25.26415257,0
1485,0.09311021479,-13.3490832,0
1486,1.963746621,-14.5074787,0
1487,3.089965329,-12.78842419,0
1488,1.219328923,-11.63002868,0
1489,11.47139946,34.62916281,0
1490,14.14050515,33.77448841,0
1491,13.1013405,35.64281405,0
1492,-33.54993236,-21.39196078,0
1493,-34.23582979,-22.90437383,0
1494,-32.08975324,-23.62993681,0
1495,-31.40385581,-22.11752376,0
1496,-30.87526965,-26.15792378,0
1497,-30.37654999,-24.37458177,0
1498,-32.58847289,-25.41327882,0
1499,-0.4784469434,22.83086484,0
1500,-1.524967913,24.89286957,0
1501,-3.64959733,23.95110632,0
1502,-6.242680821,-41.72125606,0
1503,-4.562728485,-43.52665018,0
1504,-2.872442666,-41.77972657,0
1505,-19.31983756,-8.994307135,0
1506,-16.793371,-7.794818516,0
1507,-30.15486158,-7.282445461,0
1508,-30.3582503,-4.354668244,0
1509,-31.69284581,-5.898692324,0
1510,-45.09784447,6.056954148,0
1511,-45.36667796,3.101451891,0
1512,-43.69619883,4.737497841,0
1513,-24.79682057,13.21893607,0
1514,-24.65541096,15.45953055,0
1515,-26.89074096,15.68612689,0
1516,0.1583635132,-8.807154788,0
1517,-29.02897061,-2.738892628,0
1518,-30.61033584,-1.394096405,0
1519,-31.93961553,-3.009872021,0
1520,-9.281584169,-41.46755684,0
1521,-7.604674134,-43.20040111,0
1522,22.89662354,2.25290736,0
1523,20.00050066,1.931375758,0
1524,21.61268039,0.7009714713,0
1525,-28.46544598,-22.03755818,0
1526,-26.38649573,-24.11449224,0
1527,-13.04497192,-9.960815467,0
1528,-13.49647446,-11.88611815,0
1529,-11.44776912,-12.35240344,0
1530,-10.99626658,-10.42710076,0
1531,-4.136162774,5.943352841,0
1532,-3.443281528,3.659849979,0
1533,-2.543369416,5.637963315,0
1534,-1.710261634,4.019894439,0
1535,-1.577831444,2.563739593,0
1536,12.94187876,2.069352193,0
1537,12.32662632,4.726462982,0
1538,11.30635804,2.997064083,0
1539,17.70020598,19.25413677,0
1540,15.64184659,19.13803044,0
1541,-9.782600627,-19.48395373,0
1542,-25.34335854,-17.71128506,0
1543,0.192978811,38.29951096,0
1544,0.8035571722,39.84773401,0
1545,-1.51834171,41.05392315,0
1546,-0.3731293725,-32.78486298,0
1547,1.016314944,-31.38051892,0
1548,-1.748905517,-31.44562708,0
1549,9.15796109,17.84689605,0
1550,11.31445209,18.42676285,0
1551,10.68990076,20.48593267,0
1552,-28.93452591,-26.07360883,0
1553,-30.30276685,-28.46518243,0
1554,-13.21227199,12.97826671,0
1555,-11.84831608,12.10085032,0
1556,-36.0277504,22.66570513,0
1557,-33.51524476,24.2359459,0
1558,-36.92695008,24.04581112,0
1559,4.102342767,38.052173,0
1560,2.108504538,36.76748918,0
1561,3.70651114,34.779207,0
1562,-22.74427067,11.61501295,0
1563,-21.99331753,9.419222114,0
1564,-21.24683834,10.98426447,0
1565,-9.10748815,8.874889426,0
1566,-9.973758166,7.367277444,0
1567,-7.473974564,7.971616371,0
1568,21.34485832,29.79110963,0
1569,21.63232615,27.74790904,0
1570,23.72622183,27.98502942,0
1571,23.438754,30.02823001,0
1572,-7.318441027,-7.535242955,0
1573,-8.163728412,-9.284357657,0
1574,-5.953980209,-10.18672025,0
1575,-24.34440501,6.172571079,0
1576,-22.92496162,7.752553821,0
1577,6.326897242,4.943932763,0
1578,5.462095667,6.892328888,0
1579,3.330743512,6.419483472,0
1580,4.195545088,4.471087347,0
1581,-10.40230998,20.55447253,0
1582,-8.802257571,19.23251401,0
1583,-7.432700298,21.12027995,0
1584,-22.03334558,1.291327958,0
1585,-23.30427507,-0.05348763481,0
1586,-21.69930276,-1.462036113,0
1587,-37.9723496,2.153047662,0
1588,-39.40392473,3.55018378,0
1589,-40.88050906,2.030062181,0
1590,-1.249650016,-19.56836037,0
1591,-2.893708824,-18.38051657,0
1592,-2.267194376,-21.1876268,0
1593,12.21174077,-11.16756752,0
1594,10.34831556,-11.0841521,0
1595,-19.25064445,10.39109972,0
1596,-18.26661109,12.46020022,0
1597,-20.26280499,13.05336497,0
1598,-24.86926819,1.682841296,0
1599,-23.44305049,2.363089989,0
1600,-24.8198036,4.645534928,0
1601,2.232210504,-9.884948726,0
1602,35.85964372,16.45460469,0
1603,36.501215,18.42051006,0
1604,34.57896967,18.9413778,0
1605,33.93739839,16.97547243,0
1606,-37.84258715,5.044288077,0
1607,-39.16426487,6.498316594,0
1608,-40.72560245,5.004212297,0
1609,-24.16277872,-33.13458872,0
1610,-22.78368135,-32.26214053,0
1611,-32.67769555,1.846757346,0
1612,-30.95988758,1.65068351,0
1613,-31.18451537,3.762728661,0
1614,-21.49133537,-31.40255843,0
1615,-20.0608834,-30.69151713,0
1616,-29.50675084,0.7244556561,0
1617,-27.68122732,-1.210052143,0
1618,-26.25961937,0.4046207267,0
1619,-27.85246823,-25.04980609,0
1620,0.2116320329,12.06576031,0
1621,-0.5839633992,9.345919805,0
1622,1.357323522,10.20998259,0
1623,-32.17324973,6.237802908,0
1624,-30.44802343,7.038494329,0
1625,30.43673408,-14.85430938,0
1626,27.96118958,-15.36320606,0
1627,28.48530247,-17.67970418,0
1628,30.96084697,-17.1708075,0
1629,-26.62676065,17.8834098,0
1630,-29.07249893,18.32947427,0
1631,-34.91806292,-24.46418193,0
1632,-35.45424273,-26.1793395,0
1633,-33.1246527,-27.12843638,0
1634,-27.31194086,20.59101821,0
1635,-29.01925958,21.64023089,0
1636,-30.77981765,19.37868695,0
1637,6.128212459,-28.33780007,0
1638,7.244542051,-26.68723686,0
1639,5.788185444,-25.71750648,0
1640,4.671855853,-27.36806969,0
1641,-4.715306819,36.25545723,0
1642,-29.29449232,-23.35077903,0
1643,-30.57480947,-20.80430291,0
1644,-8.076607968,0.07718717492,0
1645,-5.597431328,-2.319019357,0
1646,-16.69499206,-2.68097547,0
1647,-20.11517892,-2.94040286,0
1648,-15.57489322,-0.3422198101,0
1649,-22.73014803,13.27307273,0
1650,16.14087395,-2.473509351,0
1651,15.93791621,0.02055172092,0
1652,14.71760036,-1.46612461,0
1653,37.70070928,4.542425332,0
1654,36.07910297,5.925049815,0
1655,34.72638203,4.454375346,0
1656,-4.359223209,-23.9208612,0
1657,-5.883585142,-24.75752598,0
1658,-5.308935867,-26.14474289,0
1659,-3.784573934,-25.3080781,0
1660,34.09842502,-8.758664158,0
1661,32.90840901,-7.535722161,0
1662,-28.75126388,-8.272428164,0
1663,-26.13788995,-9.103940552,0
1664,-0.7886600249,13.89565343,0
1665,18.08952077,-14.77794387,0
1666,18.21501175,-16.74467279,0
1667,20.15920974,-16.6943466,0
1668,20.03371877,-14.72761768,0
1669,-31.13702881,-11.75673014,0
1670,-30.69985752,-13.75302049,0
1671,-13.22724659,-29.97366303,0
1672,-11.790799,-29.65580353,0
1673,-10.84699083,-30.95890988,0
1674,-0.3221498353,4.930323641,0
1675,-1.155257618,6.548392517,0
1676,27.12428857,-13.42947165,0
1677,25.10239467,-14.09144397,0
1678,25.93929568,-16.02517839,0
1679,1.315869353,-44.04186488,0
1680,2.66201884,-43.07775113,0
1681,1.558372126,-41.69363544,0
1682,0.2122226393,-42.65774918,0
1683,-16.86318772,-23.88363004,0
1684,-18.72921947,-25.10641563,0
1685,1.247007071,-34.03126403,0
1686,-1.51105445,-34.35245051,0
1687,0.1090819933,-35.59885156,0
1688,-36.19212835,-4.903887037,0
1689,-34.83376466,-3.344107804,0
1690,-36.3988244,-2.046878551,0
1691,-21.52056086,-4.373995128,0
1692,-21.60455932,-7.10434398,0
1693,23.63483895,-14.50641911,0
1694,21.82625135,-14.71030569,0
1695,22.13203188,-16.58288069,0
1696,23.94061947,-16.37899412,0
1697,-19.88330867,-15.1931824,0
1698,-21.59905089,-13.13084636,0
1699,40.85886378,-1.155164701,0
1700,39.40809241,0.2647790131,0
1701,37.89167055,-1.050068155,0
1702,39.34244192,-2.47001187,0
1703,25.99928887,16.56467643,0
1704,24.16223804,18.94165306,0
1705,10.18187402,-34.95070134,0
1706,8.294025574,-33.94469359,0
1707,7.528054419,-35.70316859,0
1708,9.415902866,-36.70917634,0
1709,-19.07332107,-23.16902326,0
1710,-20.65449868,-23.24923777,0
1711,0.5715416605,7.507419083,0
1712,27.21633797,30.7168075,0
1713,25.38576197,30.34717848,0
1714,25.65671244,28.46954208,0
1715,27.48728843,28.83917111,0
1716,20.81756896,-7.267538421,0
1717,18.0657527,-8.781242661,0
1718,37.43929444,-12.86237068,0
1719,35.72832588,-13.91976953,0
1720,36.78857942,-15.27464379,0
1721,38.49954798,-14.21724494,0
1722,-32.45214213,17.58627739,0
1723,-34.04941537,18.7255775,0
1724,26.38741809,-18.04009644,0
1725,26.7957605,-20.1561008,0
1726,28.89364488,-19.79570854,0
1727,-8.329527934,-15.51883573,0
1728,-5.657168706,-14.54226649,0
1729,-5.992111376,-45.00102145,0
1730,-8.961354639,-44.59782553,0
1731,0.3526310163,29.13457872,0
1732,1.854198179,30.51084188,0
1733,0.4027731759,31.95221414,0
1734,-1.098793986,30.57595098,0
1735,11.79512756,16.16808412,0
1736,9.830534727,15.92092494,0
1737,10.09294175,14.19916098,0
1738,12.05753458,14.44632017,0
1739,-2.66942509,-26.84100013,0
1740,-4.744148844,-28.37945949,0
1741,-3.567521612,-30.0421093,0
1742,13.40161943,18.87975322,0
1743,13.11513665,20.90062689,0
1744,0.1267229148,26.89056947,0
1745,1.452127535,27.84058291,0
1746,17.19957412,1.600022316,0
1747,18.47849628,3.093723265,0
1748,25.59799435,-11.64963057,0
1749,28.60492896,-12.13781761,0
1750,27.07863474,-10.35797653,0
1751,34.26150493,7.376032709,0
1752,37.51382269,7.826042973,0
1753,35.69622465,9.277025867,0
1754,12.86538141,-33.98901297,0
1755,10.96568058,-33.08936653,0
1756,27.18335047,-30.91596185,0
1757,27.41654939,-29.51033137,0
1758,25.81298339,-29.14293901,0
1759,25.57978447,-30.5485695,0
1760,28.12827859,10.1893897,0
1761,28.23162881,12.33724016,0
1762,33.33322145,15.09586393,0
1763,32.56421038,13.14603136,0
1764,34.4141384,12.44947769,0
1765,35.18314947,14.39931026,0
1766,33.30110484,-21.24654417,0
1767,31.29908204,-21.54423797,0
1768,31.7404118,-23.45592235,0
1769,33.7424346,-23.15822854,0
1770,10.2186539,10.0172476,0
1771,9.747954446,7.969297416,0
1772,11.34973096,7.460644337,0
1773,11.82043041,9.508594517,0
1774,35.77295184,-7.570228952,0
1775,35.27171946,-10.07358298,0
1776,36.94624628,-8.885147779,0
1777,12.49138143,23.28033661,0
1778,10.06614554,22.86564239,0
1779,-36.60043923,3.479322684,0
1780,-36.36942616,6.264483458,0
1781,18.44681892,-36.48747123,0
1782,19.0517227,-34.6618,0
1783,17.23753577,-33.90716351,0
1784,16.632632,-35.73283475,0
1785,-26.41090361,29.81339603,0
1786,-28.16529822,30.10462448,0
1787,-29.26125042,33.20258918,0
1788,-27.15332969,32.83160357,0
1789,29.26191404,27.68820956,0
1790,29.10405094,29.12175298,0
1791,27.64515154,27.40562768,0
1792,2.009560066,33.45133237,0
1793,3.464619919,31.74653136,0
1794,16.33972105,37.59800007,0
1795,14.76774426,36.63963957,0
1796,15.27581271,34.89245578,0
1797,16.8477895,35.85081629,0
1798,43.86142046,-1.32096799,0
1799,42.39613916,0.1601221445,0
1800,42.32414508,-2.636254836,0
1801,40.28826098,-17.54601506,0
1802,39.47657531,-15.85464403,0
1803,37.64597287,-16.59195951,0
1804,38.45765854,-18.28333054,0
1805,10.69764286,1.467894066,0
1806,9.350104989,0.003612651564,0
1807,10.40338576,-0.9845817111,0
1808,11.75092363,0.4796997037,0
1809,40.36629958,17.32672062,0
1810,38.46426781,17.88769759,0
1811,37.7521975,15.88629198,0
1812,39.65422926,15.32531501,0
1813,4.801734199,-36.36195875,0
1814,6.727879701,-37.42372371,0
1815,11.24947668,39.29915767,0
1816,9.467473213,38.25856974,0
1817,10.42538433,36.44335277,0
1818,12.20738779,37.4839407,0
1819,35.16220072,20.86775617,0
1820,33.18465606,21.34653661,0
1821,32.60142501,19.42015825,0
1822,-23.40550685,-20.61692442,0
1823,-1.948611339,-16.68983911,0
1824,-3.741266443,-15.58446665,0
1825,-18.17628136,19.48531728,0
1826,-18.09140165,21.53053707,0
1827,-20.17961057,21.39214782,0
1828,43.69609492,4.303293282,0
1829,42.08828524,5.713985455,0
1830,40.68883743,4.378393291,0
1831,42.29664711,2.967701118,0
1832,42.13406648,-12.33958229,0
1833,41.04646491,-10.74001108,0
1834,39.22773687,-11.74305005,0
1835,40.31533844,-13.34262125,0
1836,6.636116004,-43.48620384,0
1837,7.352882987,-41.84267763,0
1838,5.577911359,-40.83414812,0
1839,4.861144376,-42.47767433,0
1840,3.517861827,24.59055914,0
1841,4.591346232,22.8186517,0
1842,6.552294179,23.80648797,0
1843,23.08611995,-33.84155888,0
1844,23.45844832,-31.93211041,0
1845,21.65699849,-31.49167537,0
1846,21.28467012,-33.40112385,0
1847,40.36846481,-6.54973606,0
1848,39.09880509,-5.138660226,0
1849,37.42236112,-6.334207155,0
1850,38.69202084,-7.745282989,0
1851,20.94854078,35.36658664,0
1852,19.37362616,35.17489043,0
1853,19.69511813,33.23658542,0
1854,21.27003276,33.42828163,0
1855,30.93045072,-19.49701745,0
1856,32.65388113,-19.60586776,0
1857,32.68427738,-17.2796578,0
1858,-5.580257184,-22.98705782,0
1859,38.12641603,-10.31008065,0
1860,39.87219059,-9.170215858,0
1861,15.64938122,-32.79953107,0
1862,13.77926415,-31.91315736,0
1863,14.73549849,-34.87538668,0
1864,15.18857398,-7.000131446,0
1865,16.23160056,-4.588392816,0
1866,14.30963604,-5.479206585,0
1867,4.501279411,2.955812246,0
1868,2.168046714,3.957958661,0
1869,-34.58035384,-6.22263853,0
1870,-37.49167521,-6.522290759,0
1871,-35.8799007,-7.841042252,0
1872,11.13641688,-44.07122966,0
1873,9.256193824,-42.92493786,0
1874,8.367450189,-44.69916288,0
1875,-32.65182832,32.08877473,0
1876,-30.50052933,34.10897895,0
1877,44.64888436,-8.543723332,0
1878,42.82241472,-9.642882552,0
1879,44.01898505,-11.34683246,0
1880,27.12862805,-32.76591045,0
1881,25.21106665,-32.37958806,0
1882,25.00619075,-34.32368294,0
1883,26.92375214,-34.71000532,0
1884,31.14178607,33.15161609,0
1885,31.07413822,31.09443584,0
1886,33.14997188,31.16043949,0
1887,45.35988685,2.938306141,0
1888,45.10453167,5.785895338,0
1889,19.3783258,41.14026325,0
1890,16.74427716,42.2645633,0
1891,17.46586263,40.2916434,0
1892,22.80860707,35.88289857,0
1893,23.09106332,33.89767004,0
1894,24.99876879,34.32281858,0
1895,24.71631254,36.30804711,0
1896,30.74723439,2.995659728,0
1897,31.94490292,4.134176862,0
1898,30.84507223,5.195458145,0
1899,29.6474037,4.056941011,0
1900,43.42776132,7.006880421,0
1901,44.72167553,8.569776964,0
1902,42.32427328,16.67551981,0
1903,41.47539906,14.78081282,0
1904,43.35070133,14.01811937,0
1905,24.38044398,38.38894174,0
1906,26.74075166,36.77271099,0
1907,28.98675881,-35.04884598,0
1908,26.72941052,-36.78011991,0
1909,34.56092567,-19.3699018,0
1910,36.54096561,-18.85715908,0
1911,36.23779202,-17.39847801,0
1912,34.25775208,-17.91122074,0
1913,3.16806745,28.88481077,0
1914,2.563768956,26.25264157,0
1915,24.62052979,0.7665347375,0
1916,23.07837645,-0.6355785132,0
1917,24.56744582,-2.112955119,0
1918,26.10959916,-0.7108418679,0
1919,36.74983251,-26.7546183,0
1920,34.6274614,-26.98991655,0
1921,34.99658946,-29.02771544,0
1922,44.16455624,11.32511416,0
1923,42.40372515,12.23712181,0
1924,36.75788978,26.76291567,0
1925,36.26919801,24.73605848,0
1926,38.36491385,24.37802592,0
1927,8.428955395,44.68614686,0
1928,9.425062397,42.88015403,0
1929,11.24378024,44.03946186,0
1930,43.22661385,-14.09886155,0
1931,18.69719722,36.6039839,0
1932,17.52421844,34.42172282,0
1933,27.810166,3.736768616,0
1934,29.21131033,5.831613412,0
1935,27.55452542,-2.22928255,0
1936,29.10394804,-0.9320296477,0
1937,27.65902178,0.5864110343,0
1938,21.61435587,-2.065773893,0
1939,33.11834392,-31.17830558,0
1940,31.01842057,-31.14848503,0
1941,31.11769638,-33.18779918,0
1942,38.36964296,-24.38639731,0
1943,36.26586986,-24.7361325,0
1944,45.44887426,0.04870970726,0
1945,45.36617432,-2.845254907,0
1946,33.80692387,-15.44959935,0
1947,35.38039857,-16.08116229,0
1948,13.9047025,-43.26940348,0
1949,16.62544374,-42.28953801,0
1950,14.61731989,-41.35936593,0
1951,29.07660353,32.93717289,0
1952,29.0011382,35.02338076,0
1953,41.6481404,-8.073087325,0
1954,41.13611666,-19.40877024,0
1955,42.26532747,-16.79398515,0
1956,35.01949259,29.02723905,0
1957,32.93164052,29.12135779,0
1958,5.617457696,-45.18548684,0
1959,21.87154061,-39.84221274,0
1960,19.8365579,-39.13513674,0
1961,19.29204198,-41.14956672,0
1962,24.35304343,-38.38668845,0
1963,24.67757084,-36.31320275,0
1964,34.22820637,-25.06610063,0
1965,35.7800981,-22.82826041,0
1966,23.82716614,-30.10109184,0
1967,15.92681735,-37.60399961,0
1968,23.23587616,32.00146612,0
1969,21.4148456,31.53207772,0
1970,37.76674721,22.35548354,0
1971,39.83674659,21.89059864,0
1972,12.17175936,42.16104304,0
1973,14.03409083,43.23311361,0
1974,2.769067121,45.49783378,0
1975,3.962793395,43.91637952,0
1976,5.614634472,45.18686934,0
1977,0.6964639818,-38.31500249,0
1978,-1.100115184,-40.59624574,0
1979,1.316434095,-39.98117186,0
1980,15.66432202,39.43975561,0
1981,14.86554164,41.29810136,0
1982,13.07501116,40.33911196,0
1983,13.87379154,38.48076622,0
1984,20.53008924,37.28724901,0
1985,19.97415367,39.13315296,0
1986,18.14126165,38.44988786,0
1987,20.38866874,-37.19545536,0
1988,22.31144302,-37.79398796,0
1989,22.75750005,-35.8310787,0
1990,20.83472576,-35.2325461,0
1991,15.29285465,-39.50276857,0
1992,17.26074538,-40.32592158,0
1993,17.89470808,-38.42715261,0
1994,37.19482785,-20.59680004,0
1995,39.11152078,-20.0229715,0
1996,42.0647647,-5.381686782,0
1997,43.69185253,-4.134453305,0
1998,40.69705725,-3.883488313,0
1999,-42.33762715,3.382102029,0
2000,-43.87573957,1.761576824,0
2001,-42.41862149,0.4095369749,0
2002,9.115177018,-27.61558823,0
2003,36.3379736,-11.42940128,0
2004,32.10880721,17.4982286,0
2005,30.6677552,19.87797934,0
2006,30.1751374,17.95604969,0
2007,12.30730428,-18.469933,0
2008,10.75742448,-18.252461,0
2009,10.55098561,-19.82216736,0
2010,12.10086541,-20.03963937,0
2011,31.31699394,11.53513136,0
2012,31.15587575,14.08145813,0
2013,29.90865931,12.47055813,0
2014,9.978236831,-30.36296559,0
2015,9.115091766,-32.17689176,0
2016,11.82882564,-31.27544037,0
2017,-34.25620977,-30.60283982,0
2018,-33.41882608,-29.39386853,0
2019,-36.28157688,-27.5834459,0
2020,10.53312711,5.597679023,0
2021,13.14323017,6.589428296,0
2022,-23.93878839,31.72927018,0
2023,-25.54121712,32.22604983,0
2024,29.2622762,-21.84292906,0
2025,1.20861058,44.08917209,0
2026,-0.08487933144,45.54496643,0
2027,31.70883383,23.70427075,0
2028,32.26407785,25.42653483,0
2029,30.35323408,25.92659317,0
2030,29.79799007,24.20432909,0
2031,10.34622488,41.12108875,0
2032,35.75668741,22.81891214,0
2033,37.17226052,20.40432757,0
2034,30.51205923,-2.330869769,0
2035,32.02820074,-1.053573229,0
2036,30.62008956,0.3452668929,0
2037,-1.560104843,-43.84123002,0
2038,18.03321088,-32.52614966,0
2039,16.44505633,-31.41851721,0
2040,34.51612104,-6.245683783,0
2041,33.24761273,-4.978339266,0
2042,31.6399007,-6.268377644,0
2043,-1.542058365,36.51937142,0
2044,0.3734673628,34.98734964,0
2045,-2.925736878,34.89112672,0
2046,21.92285256,39.84953243,0
2047,45.09400181,-5.710106596,0
2048,41.29236578,-14.98002034,0
2049,43.855133,1.51143864,0
2050,39.13531333,19.8715151,0
2051,41.15520945,19.30794115,0
2052,4.032152805,-43.91175042,0
2053,2.835603307,-45.49458719,0
2054,39.83204683,-21.94122595,0
2055,-3.52392416,-22.65251556,0
2056,-2.991525306,-45.29395233,0
2057,-0.04415674528,-45.50090581,0
2058,39.30012793,3.057809433,0
2059,39.08941878,5.86300919,0
2060,3.249072379,-39.93121146,0
2061,6.07109944,-39.10858673,0
2062,3.74226046,-38.20565007,0
2063,19.64675212,25.42931573,0
2064,21.91357799,25.61627297,0
2065,19.37434746,13.41772788,0
2066,21.39486575,13.12574503,0
2067,-26.51730845,-35.14337584,0
2068,-25.42008091,-34.0869177,0
2069,33.4717613,2.953847209,0
2070,33.19952365,5.634704998,0
2071,12.04043908,-2.101105293,0
2072,9.058432162,-2.492658761,0
2073,16.25466671,-18.69945687,0
2074,16.19839488,-16.71962264,0
2075,-18.14729124,28.87992975,0
2076,-19.70637758,29.69332214,0
2077,15.52953202,-27.49992682,0
2078,18.07858368,-27.36981683,0
2079,-32.23600555,-32.7541388,0
2080,22.87616232,-25.28797778,0
2081,25.21046581,-25.00243913,0
2082,24.97840644,-22.60483762,0
2083,-15.51587948,25.57884487,0
2084,-14.80548109,27.72769572,0
2085,-16.5647322,28.17204923,0
2086,-26.14589145,35.35423505,0
2087,-24.53377888,34.74868131,0
2088,9.743461374,33.57270378,0
2089,32.56874149,-27.26799619,0
2090,30.56479408,-27.44676786,0
2091,30.87316203,-29.31847194,0
2092,32.87710944,-29.13970027,0
2093,5.956521369,40.61278756,0
2094,7.569819861,41.78494241,0
2095,6.694797985,43.47457032,0
2096,5.081499493,42.30241547,0
2097,28.60598763,-27.83967679,0
2098,30.1003398,-25.71567844,0
2099,28.14153335,-26.10858737,0
2100,38.91165769,8.670223629,0
2101,40.61661783,9.047276873,0
2102,40.11663775,11.44717817,0
2103,8.723821953,-38.46253032,0
2104,10.67233674,-39.45512283,0
2105,34.24175086,25.13402568,0
2106,34.6584218,26.99773753,0
2107,32.68074879,27.29024669,0
2108,6.568833531,38.95630566,0
2109,3.490030606,39.7086549,0
2110,41.82672985,8.00008481,0
2111,43.04077708,9.647217886,0
2112,41.83066507,10.69440995,0
2113,9.970352529,-41.22965357,0
2114,11.93500766,-42.22910072,0
2115,12.63699187,-40.45456998,0
2116,3.580626472,41.45787761,0
2117,0.8941530386,41.59695672,0
2118,-0.3591567551,42.61428716,0
2119,-1.547620032,43.99099247,0
2120,-2.706804987,42.43062846,0
2121,2.461920374,43.07184165,0
2122,40.48725377,6.707189845,0
2123,13.93036559,-11.14205013,0
2124,13.95600588,-9.598391941,0
2125,12.23738105,-9.623909335,0
2126,27.98424406,16.34809228,0
2127,29.88180628,16.0126049,0
2128,27.85602126,14.34212496,0
2129,24.64716718,-20.49994297,0
2130,24.38874188,-18.39391218,0
2131,22.3207361,-18.61571009,0
2132,-35.03287885,-0.6006524444,0
2133,-33.49084233,-1.760728753,0
2134,-32.06347258,-0.467868551,0
2135,-33.6055091,0.6922077581,0
2136,22.16203892,21.26027725,0
2137,22.00251328,19.10443174,0
2138,24.32176367,21.09749857,0
2139,19.90262078,19.2558386,0
2140,2.310483545,-22.41483776,0
2141,4.228198066,-23.44709132,0
2142,5.249816888,-21.23706773,0
2143,-4.333163796,43.74593595,0
2144,-2.938317909,45.39965416,0
2145,-5.815754084,45.11460539,0
2146,15.90501988,-8.873329886,0
2147,15.8834883,-11.0340715,0
2148,18.04422112,-10.94198428,0
2149,19.02414856,11.54186626,0
2150,18.76191424,9.598847717,0
2151,20.91415118,9.22611821,0
2152,21.1763855,11.16913676,0
2153,11.67359703,-21.96450388,0
2154,9.729836093,-21.18380095,0
2155,12.51833464,11.54397292,0
2156,13.55597167,13.62334144,0
2157,11.01989755,12.36695165,0
2158,28.94759832,-29.31885953,0
2159,29.09285685,-31.14887261,0
2160,26.35662286,26.25733817,0
2161,24.42613226,25.7728255,0
2162,-11.30439327,17.95793827,0
2163,-12.03299721,21.2777747,0
2164,-12.9350805,18.68124044,0
2165,23.3802644,-11.5756979,0
2166,24.60913191,-12.66744534,0
2167,22.11443171,23.36883627,0
2168,24.62698598,23.52538881,0
2169,34.94122722,-1.039863317,0
2170,-5.547484744,42.13180685,0
2171,-7.186891629,43.37816109,0
2172,-8.448384851,41.69779979,0
2173,-40.41575674,-6.85899939,0
2174,-43.36470935,-7.178521997,0
2175,-41.68500898,-8.485082199,0
2176,-41.60851763,9.264406251,0
2177,-43.3308656,7.68475928,0
2178,-42.08417413,6.359608108,0
2179,-40.36182617,7.93925508,0
2180,-33.28253786,-4.593251071,0
2181,-32.99066179,-7.528079782,0
2182,33.52588428,0.2757896624,0
2183,33.44354368,-2.369226209,0
2184,18.32421886,-30.93332539,0
2185,18.00504222,-29.36082941,0
2186,16.12587968,-29.84602123,0
2187,32.16948645,-25.34418027,0
2188,-27.55313827,36.2125708,0
2189,3.693593135,-15.63924265,0
2190,0.8652548335,-16.19183933,0
2191,6.843627821,12.69891155,0
2192,5.101895875,11.85842632,0
2193,6.047192029,10.01760401,0
2194,7.788923975,10.85808924,0
2195,-27.65457103,-36.17934762,0
2196,-29.89741697,-35.10474288,0
2197,-35.15814289,29.31785486,0
2198,-23.65567822,-11.17608889,0
2199,-24.04307264,-8.906484004,0
2200,0.6211723903,25.37017645,0
2201,1.575265261,23.70809401,0
2202,-22.56717333,23.27233621,0
2203,-22.50981304,20.88415766,0
2204,3.49101041,-41.64367504,0
2205,16.12943117,-20.66962021,0
2206,14.22485834,-18.52411447,0
2207,14.0996228,-20.49427782,0
2208,22.83186038,6.927198633,0
2209,24.44953522,4.033259176,0
2210,-37.4829741,7.888471548,0
2211,-38.6805354,9.329410034,0
2212,-38.77792237,-8.15656382,0
2213,-35.86392323,8.978892147,0
2214,-34.75037528,7.354904056,0
2215,-34.20794832,-9.132217113,0
2216,-37.07010176,-9.4176911,0
2217,-35.39814938,-10.70886596,0
2218,3.214930021,11.03342902,0
2219,4.11414768,13.73914522,0
2220,2.227181826,12.91414792,0
2221,16.10497716,-14.83546316,0
2222,14.21650859,-16.72631314,0
2223,9.975571156,29.12130363,0
2224,10.92252411,27.75689106,0
2225,-22.40508128,31.14318727,0
2226,-21.0910821,30.49783416,0
2227,0.3579857191,3.239742218,0
2228,-10.76574992,25.7662952,0
2229,-12.33648854,25.13241881,0
2230,-11.8725857,23.36504777,0
2231,13.95609653,8.641545034,0
2232,-16.94615569,14.6233345,0
2233,-15.04423211,13.85130338,0
2234,-6.964615128,9.753497519,0
2235,-7.387551487,11.37851388,0
2236,-9.530424509,10.49990578,0
2237,-7.917755965,13.37703698,0
2238,18.9527342,31.69893326,0
2239,-24.99763629,37.99526986,0
2240,26.94947268,34.67713118,0
2241,29.03813443,-32.99882121,0
2242,22.39015552,37.80356093,0
2243,37.76677656,-22.41448224,0
2244,29.53305175,14.47544293,0
2245,27.13358802,32.6747272,0
2246,25.18288413,32.3204146,0
2247,43.3444403,-6.905038047,0
2248,35.20814938,-21.01057822,0
2249,10.38870971,-16.74950084,0
2250,12.29895453,-16.67213168,0
2251,31.16424963,21.83392803,0
2252,29.12217683,22.33826499,0
2253,32.07157764,1.564633523,0
2254,28.84720417,26.2089782,0
2255,30.76794395,27.40582453,0
2256,27.0749387,-28.03114864,0
2257,-21.47612489,33.46418202,0
2258,-23.009832,34.05026493,0
2259,-9.842397329,26.99218369,0
2260,14.35009296,-30.25420628,0
2261,-44.631467,8.976597014,0
2262,-44.65762193,-8.725465894,0
2263,-45.10553329,-5.801847984,0
2264,-8.719929426,44.66200158,0
2265,9.117684346,30.75196757,0
2266,12.53078326,25.16855626,0
2267,40.83765327,1.616384622,0
2268,32.48878352,8.438570844,0
2269,31.42680224,6.697243133,0
2270,8.152324691,-29.40218825,0
2271,33.49151023,10.3597733,0
2272,-14.85607205,-7.738742412,0
2273,20.15919506,-27.35898994,0
2274,22.67686605,-27.48036253,0
2275,-24.05353621,-36.77378941,0
2276,-22.79623402,-35.82146044,0
2277,-36.49696577,-21.97818822,0
2278,-37.1791989,-23.53799632,0
2279,19.89115978,21.24618698,0
2280,20.63043124,7.360378279,0
2281,18.40426881,7.303835564,0
2282,18.37181873,5.691674613,0
2283,8.662337736,13.43394107,0
2284,7.871789068,15.29420087,0
2285,6.053079154,14.55917135,0
2286,2.153365464,-25.87215993,0
2287,0.940122366,-24.13507058,0
2288,-1.029210111,-25.53090458,0
2289,33.72924026,23.21687933,0
2290,8.490982341,40.02587713,0
2291,-22.03479839,36.43025244,0
2292,-23.55874527,37.12866881,0
2293,-2.144358955,-23.99798255,0
2294,-24.52456986,17.40612354,0
2295,-24.09585489,18.94276647,0
2296,-26.19804568,19.42005272,0
2297,7.279053463,-31.18714676,0
2298,-21.64906774,-11.16357519,0
2299,31.50463028,15.6186201,0
2300,-26.27951165,23.17650119,0
2301,-25.39273973,21.75630274,0
2302,-24.27884454,20.58533725,0
2303,40.68969783,12.98989003,0
2304,19.50166706,-32.83037775,0
2305,-4.990464462,-31.73774271,0
2306,-25.26762053,-37.81763384,0
2307,-38.02627147,-25.00077671,0
2308,-21.55258555,-34.8750316,0
2309,-20.26023956,-34.0154495,0
2310,-32.82717182,-19.88644744,0
2311,-35.02237803,-18.95359021,0
2312,-35.74513857,-20.45910355,0
2313,-19.01328115,34.9993484,0
2314,-20.51701683,35.68806913,0
2315,-19.97238921,32.7754613,0
2316,-33.15365395,8.142674701,0
2317,-32.40778691,-10.59080919,0
2318,-31.19050038,-8.986671864,0
2319,-32.03698869,-18.45573501,0
2320,-18.9915613,-33.11959496,0
2321,-17.615453,-32.33479729,0
2322,-18.58768469,31.97094928,0
2323,9.261578956,2.07205812,0
2324,7.643028984,1.690015118,0
2325,7.731555018,-0.3784303507,0
2326,17.45664853,13.84277339,0
2327,2.523079356,21.92981928,0
2328,3.468710691,20.12851591,0
2329,2.31967627,17.43718615,0
2330,4.364758605,18.31044823,0
2331,7.199215431,17.22017198,0
2332,1.226889769,14.74404103,0
2333,3.238820073,15.61037285,0
2334,9.58929354,11.60173173,0
2335,14.41562469,1.092645952,0
2336,-13.97849003,23.43315419,0
2337,-14.13890154,21.34588112,0
2338,32.66688018,-14.13112556,0
2339,29.94262795,-13.0256408,0
2340,4.423884886,-3.15528641,0
2341,26.88286226,23.19462459,0
2342,-12.15688466,-40.84738597,0
2343,-10.55839044,-42.70872518,0
2344,-10.88007839,-39.60621764,0
2345,-39.93597585,-9.757195663,0
2346,-42.84096211,-10.07609855,0
2347,-41.09192899,-11.34821201,0
2348,-40.94801965,12.13613581,0
2349,-42.77094107,10.58309095,0
2350,-39.78559621,10.8174511,0
2351,-9.716878866,39.95623681,0
2352,-10.06402878,42.84694963,0
2353,-11.33252279,41.10538665,0
2354,-20.19223196,8.468760408,0
2355,-14.16471413,19.40264633,0
2356,-15.10878029,16.95736865,0
2357,-13.87914665,16.23596276,0
2358,-36.55935444,0.7274636887,0
2359,-35.18744407,2.053738711,0
2360,-10.12184594,-14.83788041,0
2361,15.9967587,-12.90238257,0
2362,31.88556476,-3.673699489,0
2363,-44.02879486,-11.5983059,0
2364,-11.84470905,-43.95635432,0
2365,-43.98492874,11.85416718,0
2366,-11.59177259,44.03040274,0
2367,8.067041692,-40.14739334,0
2368,-16.03892453,21.49094432,0
2369,-16.06473713,19.54770954,0
2370,-15.82143043,23.58039429,0
2371,27.5586755,25.06068869,0
2372,13.23955998,-7.725193501,0
2373,15.23924287,25.04289349,0
2374,29.29574631,1.776293098,0
2375,17.33642175,25.31482461,0
2376,19.84355257,23.354746,0
2377,4.901942911,0.2023372814,0
2378,6.06578191,2.126582462,0
2379,-13.67293909,25.43160477,0
2380,2.864449609,-35.18138052,0
2381,1.80497587,-37.02507184,0
2382,2.233213264,-32.46548415,0
2383,-11.14653516,-36.51102604,0
2384,-12.41701518,-37.76150384,0
2385,-10.98737563,38.24640558,0
2386,-36.88230475,10.6999437,0
2387,-37.98736556,12.18798477,0
2388,-38.22815525,-11.01832294,0
2389,23.14157619,-13.08242048,0
2390,29.15935347,30.9792532,0
2391,31.01883568,29.23693563,0
2392,25.81601045,-26.86553958,0
2393,27.53598871,-24.24548691,0
2394,-18.28205197,-17.38134699,0
2395,-21.4585469,-38.3572134,0
2396,-20.21489843,-37.41078456,0
2397,-38.5755388,21.53782613,0
2398,-37.79746999,20.39180527,0
2399,-19.49602883,37.94285036,0
2400,-21.01381038,38.68503367,0
2401,-37.95442792,-19.47152796,0
2402,-38.70625512,-20.99061263,0
2403,22.94342505,-3.430722531,0
2404,21.3797254,-4.732367532,0
2405,-5.735003114,22.4141577,0
2406,-35.11896549,11.74861706,0
2407,-34.10058396,10.0275655,0
2408,-12.50206416,-34.74319658,0
2409,-11.21361775,-33.58365595,0
2410,-11.87896097,33.4901578,0
2411,-12.19454818,36.403341,0
2412,-13.40817367,34.52157216,0
2413,-33.68663485,-11.89149879,0
2414,-36.43270537,-12.21767891,0
2415,-34.72119085,-13.40031173,0
2416,4.271980512,9.101808904,0
2417,7.237307184,7.808123989,0
2418,10.38545745,-8.924592137,0
2419,-16.36824538,17.84405471,0
2420,-12.04718653,15.36292609,0
2421,5.41785499,-8.832777917,0
2422,6.919087196,-10.42719071,0
2423,8.708656437,-8.916622528,0
2424,-22.49165115,15.33230084,0
2425,-22.6990567,-39.3910688,0
2426,-22.47425,39.56831218,0
2427,-39.44870334,22.70953381,0
2428,-39.58784066,-22.45036063,0
2429,-15.54190014,30.45060391,0
2430,-17.12445918,31.15848442,0
2431,-31.06190743,-15.13647609,0
2432,-31.34354151,-16.94624745,0
2433,-16.26561438,-31.48012007,0
2434,-14.71851236,-30.77167825,0
2435,-29.88555705,9.881304388,0
2436,-31.47025454,8.962467828,0
2437,8.92485288,-18.72747557,0
2438,8.103703361,-20.08910916,0
2439,8.55613811,-17.22451541,0
2440,5.095829381,-14.11895092,0
2441,5.000785399,-16.78982167,0
2442,6.403021645,-15.26952994,0
2443,6.237397999,-19.16301026,0
2444,6.88233732,-17.53317919,0
2445,5.177751546,16.43039898,0
2446,-9.772130721,2.533909796,0
2447,-0.1610243868,-17.8642641,0
2448,-0.9223321186,-15.01741434,0
2449,-0.8876291712,-22.53309379,0
2450,-2.832786202,-13.88460828,0
2451,-4.748688466,-12.84240812,0
2452,16.2039136,7.736356584,0
2453,24.33238714,-4.871505916,0
2454,25.95640791,-3.553738504,0
2455,-11.93023747,26.77023642,0
2456,-13.26668802,27.06942238,0
2457,-36.802661,19.09389534,0
2458,-35.8906878,17.70731781,0
2459,-17.49292229,34.19343415,0
2460,-16.4464087,36.31847841,0
2461,-17.96676756,37.12439266,0
2462,-18.98648008,-36.44689202,0
2463,-17.71780182,-35.55103748,0
2464,-34.2381977,-17.43796327,0
2465,-36.34940644,-16.41343892,0
2466,-37.13358677,-17.92906586,0
2467,20.0856536,-29.35000252,0
2468,29.79304034,7.333398401,0
2469,30.31426723,9.613928896,0
2470,-40.04764853,14.90305669,0
2471,-42.01258429,13.41478903,0
2472,-38.98308389,13.62440347,0
2473,-14.92658159,-39.95596434,0
2474,-13.40338195,-41.96383642,0
2475,-13.68008431,-38.83951389,0
2476,-39.25905997,-12.58937784,0
2477,-42.12875946,-12.93081434,0
2478,-40.29589044,-14.17198017,0
2479,-12.56202916,39.25866628,0
2480,-12.92051922,42.12999731,0
2481,-14.15002559,40.28327694,0
2482,17.98130231,-12.84486328,0
2483,34.5882822,-12.60129574,0
2484,-14.66478462,-43.11901452,0
2485,-43.13918796,14.66673356,0
2486,-43.21149702,-14.43862017,0
2487,-14.43485834,43.211127,0
2488,3.742746278,-25.15602438,0
2489,15.91985256,14.06652018,0
2490,8.566977298,6.503816305,0
2491,7.904144317,4.507365419,0
2492,9.870294133,3.601228137,0
2493,2.414374013,8.278362471,0
2494,3.082475039,-28.08420524,0
2495,27.35554313,-4.96413686,0
2496,28.95366064,-3.639680905,0
2497,-3.171848368,-33.14126049,0
2498,29.67126515,-23.82742051,0
2499,-22.46886776,3.605161578,0
2500,-16.02969678,33.38096929,0
2501,-16.46791373,-34.58897274,0
2502,-15.11807511,-33.73429552,0
2503,-33.54475051,-15.92847571,0
2504,-34.89764176,16.28877458,0
2505,-34.00287438,14.51643363,0
2506,22.40015913,-6.357078894,0
2507,13.53336988,-3.070223366,0
2508,13.22466956,-0.497006537,0
2509,1.985141734,-30.24672053,0
2510,-21.50861772,-8.898906301,0
2511,-10.12701679,12.83524823,0
2512,-40.97505717,-19.86727669,0
2513,-19.86658508,40.9733642,0
2514,-20.0865149,-40.82278731,0
2515,-40.98347818,20.15531701,0
2516,-18.83669902,-39.77067825,0
2517,-17.60828067,-38.8067857,0
2518,-39.23141241,-16.84235698,0
2519,-40.05225356,-18.38481907,0
2520,-16.8565354,39.23116574,0
2521,-18.38579667,40.04962344,0
2522,-39.9939305,18.9280208,0
2523,-38.99912151,17.63011087,0
2524,-16.41438361,-17.62888263,0
2525,-14.6430655,-17.88923019,0
2526,25.73638751,-6.315214686,0
2527,-20.83930899,-21.04770047,0
2528,-18.74149213,-21.41887252,0
2529,-18.53531441,-19.42284054,0
2530,-15.12609146,-36.82017225,0
2531,-13.86302233,-35.7421622,0
2532,-36.99047611,14.931273,0
2533,-35.99475778,13.4948543,0
2534,-13.76920171,37.4156017,0
2535,-37.46361009,-13.78873381,0
2536,-1.233319528,33.48823141,0
2537,0.4827320078,-20.81286097,0
2538,19.96490184,-12.88808915,0
2539,8.418284332,9.2736051,0
2540,-12.48174076,28.95188257,0
2541,-14.02053383,29.61015591,0
2542,-32.41718456,10.84735863,0
2543,-12.26585117,-31.93731469,0
2544,-32.41587676,-13.05741973,0
2545,-11.49255139,30.63853368,0
2546,-13.0094708,31.64146219,0
2547,-8.42692158,16.93277486,0
2548,-8.225215764,15.43340749,0
2549,27.12509289,-7.652948354,0
2550,28.74424851,-6.301870528,0
2551,-10.43447659,14.89161874,0
2552,-9.028244485,-17.48595895,0
2553,-42.12363547,17.42944413,0
2554,-41.06324788,16.18335133,0
2555,-17.40692446,-42.06107409,0
2556,-16.15888272,-40.98051306,0
2557,-41.20230102,-15.70007654,0
2558,-42.19037955,-17.17428273,0
2559,-15.69798392,41.20099383,0
2560,-17.17595194,42.18944239,0
2561,-9.691683333,17.48663093,0
2562,-15.07861518,-19.60085917,0
2563,30.32716617,-4.982510625,0
2564,-16.37597955,-37.78223698,0
2565,-38.32500184,-15.31426061,0
2566,-37.98352215,16.34981623,0
2567,-15.30857707,38.31344884,0
2568,-16.66764606,-19.67037618,0
2569,21.94997705,-29.60412441,0
2570,19.79267505,-31.23755348,0
2571,1.48791116,5.648540084,0
2572,-28.48935204,10.44498874,0
2573,21.75743442,-12.87077716,0
2574,-35.48801469,-14.88791211,0
2575,-14.90703335,35.42063126,0
2576,15.04920478,-3.623488296,0
2577,-33.12708209,12.77019638,0
2578,-13.75711694,-32.73532991,0
2579,-14.53083711,32.48191019,0
2580,-32.77792667,-14.44087533,0
2581,-10.95877531,5.101608861,0
2582,-30.56809238,11.54184135,0
2583,16.7818345,32.88407066,0
2584,-6.165493421,7.636652754,0
2585,-11.00688488,27.99612492,0
2586,3.063098428,-1.475090144,0
2587,6.291759814,-12.31929732,0
2588,8.671514549,-11.07618249,0
2589,-30.24343269,22.45875989,0
2590,24.55405514,-27.97732996,0
2591,-16.53135878,-22.1334793,0
2592,6.262729369,-1.477858985,0
2593,15.64652694,31.76610329,0
2594,27.12699976,-22.26099546,0
2595,-2.70145977,31.9001481,0
2596,26.17344147,2.546886553,0
2597,4.285895762,-10.98877059,0
*ELEMENT, TYPE=S8R, ELSET=EALL
102,271,452,497,362,984,985,986,987
103,724,759,666,617,988,989,990,991
104,835,801,785,808,992,993,994,995
105,652,761,787,703,996,997,998,999
106,834,869,904,866,1000,1001,1002,1003
107,753,732,816,774,1004,1005,1006,1007
108,941,949,972,948,1008,1009,1010,1011
109,473,405,359,418,1012,1013,1014,1015
110,652,703,687,650,999,1016,1017,1018
111,749,775,815,750,1019,1020,1021,1022
112,461,520,490,478,1023,1024,1025,1026
113,966,951,936,957,1027,1028,1029,1030
114,819,851,820,769,1031,1032,1033,1034
115,474,557,586,521,1035,1036,1037,1038
116,866,924,894,880,1039,1040,1041,1042
117,898,905,864,900,1043,1044,1045,1046
118,530,571,625,605,1047,1048,1049,1050
119,729,723,753,774,1051,1052,1007,1053
120,271,362,288,222,987,1054,1055,1056
121,609,721,745,657,1057,1058,1059,1060
122,974,977,983,967,1061,1062,1063,1064
123,748,742,706,696,1065,1066,1067,1068
124,957,970,974,966,1069,1070,1071,1030
125,820,830,802,796,1072,1073,1074,1075
126,474,521,460,406,1038,1076,1077,1078
127,651,664,593,628,1079,1080,1081,1082
128,727,760,796,730,1083,1084,1085,1086
129,771,844,739,707,1087,1088,1089,1090
130,969,980,970,959,1091,1092,1093,1094
131,928,936,951,940,1095,1028,1096,1097
132,515,569,540,512,1098,1099,1100,1101
133,495,530,605,562,1102,1050,1103,1104
134,741,789,824,767,1105,1106,1107,1108
135,854,855,823,811,1109,1110,1111,1112
136,221,360,210,287,1113,1114,1115,1116
137,872,892,878,853,1117,1118,1119,1120
138,922,933,954,965,1121,1122,1123,1124
139,270,413,501,360,1125,1126,1127,1128
140,702,657,745,793,1129,1059,1130,1131
141,461,478,427,426,1026,1132,1133,1134
142,512,540,464,421,1100,1135,1136,1137
143,486,549,484,412,1138,1139,1140,1141
144,650,687,647,572,1017,1142,1143,1144
145,746,725,647,687,1145,1146,1142,1147
146,735,700,722,777,1148,1149,1150,1151
147,769,820,796,760,1033,1075,1084,1152
148,566,552,585,610,1153,1154,1155,1156
149,799,838,842,824,1157,1158,1159,1160
150,764,826,857,858,1161,1162,1163,1164
151,569,617,573,540,1165,1166,1167,1099
152,423,477,529,413,1168,1169,1170,1171
153,614,567,609,657,1172,1173,1060,1174
154,847,902,877,800,1175,1176,1177,1178
155,827,770,815,840,1179,1180,1181,1182
156,777,722,672,751,1150,1183,1184,1185
157,418,359,240,289,1014,1186,1187,1188
158,807,766,804,850,1189,1190,1191,1192
159,730,796,802,776,1085,1074,1193,1194
160,272,403,555,341,1195,1196,1197,1198
161,488,278,330,409,1199,1200,1201,1202
162,278,488,408,346,1199,1203,1204,1205
163,660,649,648,698,1206,1207,1208,1209
164,610,585,622,659,1155,1210,1211,1212
165,839,870,901,868,1213,1214,1215,1216
166,672,722,642,592,1183,1217,1218,1219
167,582,529,477,574,1220,1169,1221,1222
168,593,664,705,626,1080,1223,1224,1225
169,532,485,365,480,1226,1227,1228,1229
170,332,465,536,416,1230,1231,1232,1233
171,871,849,813,841,1234,1235,1236,1237
172,587,616,652,650,1238,1239,1018,1240
173,749,750,671,720,1022,1241,1242,1243
174,627,535,596,682,1244,1245,1246,1247
175,768,734,776,813,1248,1249,1250,1251
176,344,277,345,424,1252,1253,1254,1255
177,519,618,668,584,1256,1257,1258,1259
178,976,948,972,982,1260,1010,1261,1262
179,826,747,780,807,1263,1264,1265,1266
180,410,383,447,476,1267,1268,1269,1270
181,785,737,767,808,1271,1272,1273,994
182,615,675,740,710,1274,1275,1276,1277
183,746,794,804,766,1278,1279,1190,1280
184,822,876,836,771,1281,1282,1283,1284
185,717,620,677,755,1285,1286,1287,1288
186,830,860,841,802,1289,1290,1291,1073
187,940,927,891,928,1292,1293,1294,1097
188,42,306,217,41,1295,1296,1297,141
189,837,867,806,852,1298,1299,1300,1301
190,398,354,439,462,1302,1303,1304,1305
191,594,677,620,523,1306,1286,1307,1308
192,540,573,526,464,1167,1309,1310,1135
193,808,842,881,835,1311,1312,1313,995
194,421,464,409,334,1136,1314,1315,1316
195,539,568,631,525,1317,1318,1319,1320
196,790,854,811,736,1321,1112,1322,1323
197,627,656,699,618,1324,1325,1326,1327
198,908,929,923,884,1328,1329,1330,1331
199,933,923,929,954,1332,1329,1333,1122
200,922,924,866,904,1334,1039,1002,1335
201,787,798,828,825,1336,1337,1338,1339
202,572,514,587,650,1340,1341,1240,1144
203,538,520,646,576,1342,1343,1344,1345
204,905,898,899,865,1043,1346,1347,1348
205,959,970,965,954,1093,1349,1123,1350
206,664,651,758,689,1079,1351,1352,1353
207,860,830,880,894,1289,1354,1041,1355
208,648,684,709,698,1356,1357,1358,1208
209,604,623,681,561,1359,1360,1361,1362
210,976,969,959,945,1363,1094,1364,1365
211,473,461,426,405,1366,1134,1367,1012
212,424,485,563,486,1368,1369,1370,1371
213,489,601,560,511,1372,1373,1374,1375
214,395,463,550,417,1376,1377,1378,1379
215,715,701,658,638,1380,1381,1382,1383
216,691,747,826,764,1384,1263,1161,1385
217,577,587,484,549,1386,1387,1139,1388
218,673,739,788,712,1389,1390,1391,1392
219,288,211,51,52,1393,1394,151,1395
220,907,888,829,879,1396,1397,1398,1399
221,289,217,306,418,1400,1296,1401,1188
222,714,786,752,662,1402,1403,1404,1405
223,586,566,654,611,1406,1407,1408,1409
224,863,915,930,893,1410,1411,1412,1413
225,938,943,889,910,1414,1415,1416,1417
226,571,649,660,625,1418,1206,1419,1048
227,787,761,773,798,997,1420,1421,1336
228,530,481,522,571,1422,1423,1424,1047
229,424,345,365,485,1254,1425,1227,1368
230,574,477,487,545,1221,1426,1427,1428
231,483,572,647,546,1429,1143,1430,1431
232,863,893,882,838,1413,1432,1433,1434
233,869,862,956,904,1435,1436,1437,1001
234,569,658,724,617,1438,1439,991,1165
235,412,344,424,486,1440,1255,1371,1141
236,900,864,831,920,1045,1441,1442,1443
237,712,788,732,713,1391,1444,1445,1446
238,582,522,400,459,1447,1448,1449,1450
239,362,497,466,420,986,1451,1452,1453
240,411,546,545,487,1454,1455,1427,1456
241,696,706,669,661,1067,1457,1458,1459
242,834,765,728,803,1460,1461,1462,1463
243,404,457,581,518,1464,1465,1466,1467
244,931,886,917,953,1468,1469,1470,1471
245,889,925,845,896,1472,1473,1474,1475
246,642,536,465,592,1476,1231,1477,1218
247,697,623,678,704,1478,1479,1480,1481
248,705,731,775,749,1482,1483,1019,1484
249,908,887,913,935,1485,1486,1487,1488
250,499,596,535,468,1489,1245,1490,1491
251,338,276,361,414,1492,1493,1494,1495
252,425,471,414,361,1496,1497,1494,1498
253,737,785,795,724,1271,1499,1500,1501
254,345,294,239,365,1502,1503,1504,1425
255,728,764,858,803,1505,1164,1506,1462
256,482,567,614,516,1507,1172,1508,1509
257,223,49,50,290,1510,149,1511,1512
258,521,586,679,629,1037,1513,1514,1515
259,954,929,945,959,1333,1516,1364,1350
260,516,614,680,570,1508,1517,1518,1519
261,277,218,294,345,1520,1521,1502,1253
262,810,800,877,831,1522,1177,1523,1524
263,459,548,529,582,1525,1526,1220,1450
264,862,857,850,878,1527,1528,1529,1530
265,930,940,951,946,1531,1096,1532,1533
266,961,946,951,966,1534,1532,1027,1535
267,960,931,953,973,1536,1471,1537,1538
268,707,752,822,771,1539,1540,1284,1090
269,687,703,794,746,1016,1541,1278,1147
270,571,522,648,649,1424,1542,1207,1418
271,346,408,428,364,1204,1543,1544,1545
272,575,640,675,615,1546,1547,1274,1548
273,867,895,843,806,1549,1550,1551,1299
274,360,501,471,425,1127,1552,1496,1553
275,812,768,813,849,1554,1251,1235,1555
276,238,341,418,306,1556,1557,1401,1558
277,465,332,428,479,1230,1559,1560,1561
278,719,611,654,692,1562,1408,1563,1564
279,906,871,891,927,1565,1566,1293,1567
280,500,584,547,440,1568,1569,1570,1571
281,923,933,956,892,1332,1572,1573,1574
282,566,610,727,654,1156,1575,1576,1407
283,971,962,944,958,1577,1578,1579,1580
284,701,715,762,741,1380,1581,1582,1583
285,819,769,733,793,1034,1584,1585,1586
286,420,466,419,363,1452,1587,1588,1589
287,856,832,798,773,1590,1591,1421,1592
288,910,889,896,939,1416,1475,1593,1594
289,692,734,748,719,1595,1596,1597,1564
290,610,659,733,726,1212,1598,1599,1600
291,929,908,935,945,1328,1488,1601,1516
292,434,379,367,491,1602,1603,1604,1605
293,363,419,337,279,1588,1606,1607,1608
294,413,270,293,423,1125,1609,1610,1171
295,518,581,643,622,1466,1611,1612,1613
296,477,423,339,487,1168,1614,1615,1426
297,622,680,702,659,1616,1617,1618,1211
298,413,529,548,501,1170,1526,1619,1126
299,885,882,893,926,1620,1432,1621,1622
300,467,518,622,585,1623,1613,1210,1624
301,597,613,674,598,1625,1626,1627,1628
302,629,602,460,521,1629,1630,1076,1515
303,425,361,224,292,1498,1631,1632,1633
304,460,602,534,555,1630,1634,1635,1636
305,755,695,770,792,1637,1638,1639,1640
306,488,409,464,526,1202,1314,1310,1641
307,338,414,548,459,1495,1642,1525,1643
308,501,548,414,471,1619,1642,1497,1552
309,957,936,924,922,1029,1644,1334,1645
310,765,834,851,819,1460,1646,1031,1647
311,851,880,830,820,1648,1354,1072,1032
312,586,611,719,679,1409,1562,1649,1513
313,942,900,920,952,1650,1443,1651,1652
314,463,395,493,541,1376,1653,1654,1655
315,817,690,616,667,1656,1657,1658,1659
316,623,604,580,678,1359,1660,1661,1479
317,567,562,605,609,1662,1103,1663,1173
318,881,842,838,882,1312,1158,1433,1664
319,763,783,758,743,1665,1666,1667,1668
320,481,530,495,506,1422,1102,1669,1670
321,572,483,505,514,1429,1671,1672,1340
322,587,514,505,484,1341,1672,1673,1387
323,946,961,955,930,1534,1674,1675,1533
324,613,754,708,674,1676,1677,1678,1626
325,214,308,370,282,1679,1680,1681,1682
326,647,606,545,546,1683,1684,1455,1430
327,595,640,575,532,1685,1546,1686,1687
328,497,452,455,527,985,1688,1689,1690
329,728,765,745,721,1461,1691,1058,1692
330,793,745,765,819,1130,1691,1647,1586
331,708,791,743,718,1693,1694,1695,1696
332,698,747,691,660,1697,1384,1698,1209
333,381,356,417,489,1699,1700,1701,1702
334,712,631,568,673,1703,1318,1704,1392
335,398,531,594,470,1705,1706,1707,1708
336,545,606,624,574,1684,1709,1710,1428
337,955,926,893,930,1711,1621,1412,1675
338,274,375,440,494,1712,1713,1714,1715
339,854,865,899,855,1716,1347,1717,1109
340,435,553,507,343,1718,1719,1720,1721
341,342,460,555,403,1722,1636,1196,1723
342,598,674,633,524,1627,1724,1725,1726
343,853,825,828,872,1727,1338,1728,1120
344,74,294,218,73,1729,1521,1730,173
345,776,802,841,813,1193,1291,1236,1250
346,666,612,517,583,1731,1732,1733,1734
347,876,895,914,921,1735,1736,1737,1738
348,710,667,577,615,1739,1740,1741,1277
349,843,822,752,786,1742,1540,1403,1743
350,612,666,759,694,1731,989,1744,1745
351,886,920,831,877,1746,1442,1523,1747
352,736,754,613,697,1748,1676,1749,1750
353,528,541,493,410,1751,1654,1752,1753
354,398,462,579,531,1305,1754,1755,1705
355,373,389,396,496,1756,1757,1758,1759
356,732,753,676,713,1004,1760,1761,1445
357,434,551,600,476,1762,1763,1764,1765
358,349,472,402,368,1766,1767,1768,1769
359,909,950,964,937,1770,1771,1772,1773
360,556,580,604,456,1774,1660,1775,1776
361,786,735,806,843,1777,1778,1551,1743
362,419,457,404,337,1779,1464,1780,1606
363,351,437,458,543,1781,1782,1783,1784
364,426,283,359,405,1785,1786,1013,1367
365,216,240,359,283,1787,1186,1786,1788
366,397,388,274,494,1789,1790,1715,1791
367,479,517,592,465,1792,1793,1477,1561
368,335,438,468,492,1794,1795,1796,1797
369,209,313,356,381,1798,1799,1699,1800
370,202,311,343,380,1801,1802,1803,1804
371,895,876,822,843,1735,1281,1742,1550
372,960,968,979,963,1805,1806,1807,1808
373,207,322,379,447,1809,1810,1811,1812
374,470,594,523,504,1707,1308,1813,1814
375,374,355,416,499,1815,1816,1817,1818
376,367,350,407,491,1819,1820,1821,1604
377,522,582,684,648,1447,1822,1356,1542
378,828,798,832,859,1337,1591,1823,1824
379,706,655,646,669,1825,1826,1827,1457
380,246,296,348,436,1828,1829,1830,1831
381,226,302,384,435,1832,1833,1834,1835
382,229,300,382,433,1836,1837,1838,1839
383,751,814,852,777,1840,1841,1842,1185
384,340,432,508,558,1843,1844,1845,1846
385,333,442,511,556,1847,1848,1849,1850
386,353,443,502,554,1851,1852,1853,1854
387,597,598,472,559,1628,1855,1856,1857
388,616,690,761,652,1657,1858,996,1239
389,333,556,456,384,1850,1776,1859,1860
390,543,634,579,462,1861,1862,1754,1863
391,941,899,898,911,1864,1346,1865,1866
392,983,971,958,967,1867,1580,1868,1063
393,399,455,452,336,1869,1688,1870,1871
394,79,80,251,300,179,1872,1873,1874
395,37,38,39,240,137,138,1875,1876
396,97,98,247,302,197,1877,1878,1879
397,227,373,432,297,1880,1881,1882,1883
398,13,14,249,299,113,1884,1885,1886
399,246,2,3,296,1887,102,1888,1828
400,204,19,20,315,1889,119,1890,1891
401,232,353,429,314,1892,1893,1894,1895
402,716,636,565,653,1896,1897,1898,1899
403,220,296,3,4,1900,1888,103,1901
404,6,7,207,298,106,1902,1903,1904
405,17,232,314,16,1905,1895,1906,116
406,87,227,297,86,1907,1883,1908,186
407,559,441,380,469,1909,1910,1911,1912
408,751,672,612,694,1184,1913,1745,1914
409,744,810,848,784,1915,1916,1917,1918
410,91,301,250,90,1919,1920,1921,190
411,254,5,6,298,1922,105,1904,1923
412,10,11,253,304,110,1924,1925,1926
413,22,23,252,303,122,1927,1928,1929
414,97,302,226,96,1879,1832,1930,196
415,443,335,492,502,1931,1797,1932,1852
416,723,729,716,653,1051,1933,1899,1934
417,784,711,663,744,1935,1936,1937,1918
418,831,864,848,810,1441,1938,1916,1524
419,88,89,213,312,188,1939,1940,1941
420,92,230,301,91,1942,1943,1919,191
421,1,313,209,100,1944,1798,1945,200
422,507,597,559,469,1946,1857,1912,1947
423,206,81,82,310,1948,181,1949,1950
424,233,249,14,15,1951,1884,114,1952
425,302,247,333,384,1878,1953,1860,1833
426,202,94,95,311,1954,194,1955,1801
427,215,12,13,299,1956,112,1886,1957
428,79,300,229,78,1874,1836,1958,178
429,84,316,225,83,1959,1960,1961,183
430,248,85,86,297,1962,185,1908,1963
431,349,368,301,230,1769,1964,1943,1965
432,432,373,496,508,1881,1759,1966,1844
433,462,439,351,543,1304,1967,1784,1863
434,500,429,353,554,1968,1893,1854,1969
435,10,304,234,9,1926,1970,1971,109
436,22,303,231,21,1929,1972,1973,121
437,25,243,212,24,1974,1975,1976,124
438,401,480,365,282,1977,1228,1978,1979
439,438,315,231,374,1980,1981,1982,1983
440,443,321,204,335,1984,1985,1986,1931
441,437,316,248,340,1987,1988,1989,1990
442,439,310,225,351,1991,1992,1993,1967
443,441,319,202,380,1994,1995,1804,1910
444,442,320,209,381,1996,1997,1800,1998
445,363,290,211,420,1999,2000,2001,1589
446,695,750,815,770,2002,1021,1180,1638
447,553,435,384,456,1718,1834,1859,2003
448,599,491,407,525,2004,1821,2005,2006
449,782,846,874,805,2007,2008,2009,2010
450,676,600,551,632,2011,1763,2012,2013
451,671,621,531,579,2014,2015,1755,2016
452,61,62,210,292,161,2017,2018,2019
453,937,964,973,953,1772,2020,1537,2021
454,427,366,283,426,2022,2023,1785,1133
455,598,524,402,472,1726,2024,1767,1855
456,291,243,25,26,2025,1974,125,2026
457,503,377,286,448,2027,2028,2029,2030
458,355,374,231,303,1815,1982,1972,2031
459,234,304,350,367,1970,2032,1819,2033
460,711,644,591,663,2034,2035,2036,1936
461,214,282,365,239,1682,1978,1504,2037
462,672,592,517,612,1219,1793,1732,1913
463,634,543,458,578,1861,1783,2038,2039
464,678,580,560,635,1661,2040,2041,2042
465,428,408,544,479,1543,2043,2044,1560
466,526,544,408,488,2045,2043,1203,1641
467,19,204,321,18,1889,1985,2046,118
468,100,209,320,99,1945,1997,2047,199
469,290,50,51,211,1511,150,1394,2000
470,96,226,311,95,1930,2048,1955,195
471,83,225,310,82,1961,1992,1949,182
472,2,246,313,1,1887,2049,1944,101
473,9,234,322,8,1971,2050,2051,108
474,21,231,315,20,1973,1981,1890,120
475,78,229,308,77,1958,2052,2053,177
476,85,248,316,84,1962,1988,1959,184
477,367,379,322,234,1603,1810,2050,2033
478,94,202,319,93,1954,1995,2054,193
479,817,773,761,690,2055,1420,1858,1656
480,239,75,76,214,2056,175,2057,2037
481,493,395,436,348,1653,2058,1830,2059
482,401,433,382,504,2060,1838,2061,2062
483,668,630,547,584,2063,2064,1569,1258
484,844,809,788,739,2065,2066,1390,1088
485,360,221,242,270,1113,2067,2068,1128
486,636,463,541,565,2069,1655,2070,1897
487,949,963,979,972,2071,1807,2072,1009
488,818,689,758,783,2073,1352,1666,2074
489,520,538,510,490,1342,2075,2076,1024
490,626,705,749,670,1224,1484,2077,2078
491,64,210,62,63,2079,2017,162,163
492,628,593,454,537,1081,2080,2081,2082
493,576,588,564,538,2083,2084,2085,1345
494,305,216,283,366,2086,1788,2023,2087
495,416,536,596,499,1232,2088,1489,1817
496,214,76,77,308,2057,176,2053,1679
497,250,369,273,213,2089,2090,2091,2092
498,323,378,252,212,2093,2094,2095,2096
499,449,273,369,498,2097,2090,2098,2099
500,383,410,376,269,1267,2100,2101,2102
501,470,267,354,398,2103,2104,1302,1708
502,286,377,253,215,2028,2105,2106,2107
503,428,332,378,323,1559,2108,2093,2109
504,269,376,220,254,2101,2110,2111,2112
505,267,251,206,354,2113,2114,2115,2104
506,323,268,364,428,2116,2117,1544,2109
507,346,364,291,219,1545,2118,2119,2120
508,243,291,364,268,2025,2118,2117,2121
509,348,376,410,493,2122,2100,1752,2059
510,939,896,873,918,1593,2123,2124,2125
511,525,631,683,599,1319,2126,2127,2006
512,713,683,631,712,2128,2126,1703,1446
513,628,633,718,651,2129,2130,2131,1082
514,542,527,570,643,2132,2133,2134,2135
515,589,608,673,568,2136,2137,1704,2138
516,739,673,608,707,1389,2137,2139,1089
517,870,839,772,827,1213,2140,2141,2142
518,294,74,75,239,1729,174,2056,1503
519,241,219,27,28,2143,2144,127,2145
520,899,873,797,855,2146,2147,2148,1717
521,809,829,875,816,2149,2150,2151,2152
522,775,805,840,815,2153,2154,1181,1020
523,909,907,876,921,2155,2156,1738,2157
524,213,273,389,312,2091,2158,2159,1940
525,475,494,440,547,2160,1714,1570,2161
526,738,762,715,665,2162,1581,2163,2164
527,754,736,811,778,1748,1322,2165,2166
528,475,547,630,589,2161,2064,2167,2168
529,476,447,379,434,1269,1811,1602,1765
530,417,550,601,489,1378,2169,1372,1701
531,219,241,278,346,2143,2170,1205,2120
532,330,278,241,244,1200,2170,2171,2172
533,295,271,222,245,2173,1056,2174,2175
534,331,266,223,279,2176,2177,2178,2179
535,290,363,279,223,1999,1608,2178,1512
536,482,516,455,399,1509,2180,1869,2181
537,550,591,644,601,2182,2035,2183,2169
538,634,578,603,670,2039,2184,2185,2186
539,250,301,368,369,1920,1964,2187,2089
540,240,216,36,37,1787,2188,136,1876
541,868,901,913,887,1215,2189,1486,2190
542,934,919,912,932,2191,2192,2193,2194
543,66,221,287,65,2195,1116,2196,165
544,41,217,289,40,1297,1400,2197,140
545,609,605,625,688,1663,1049,2198,2199
546,751,694,795,814,1914,2200,2201,1840
547,520,590,669,646,2202,2203,1827,1343
548,282,370,433,401,1681,2204,2060,1979
549,731,689,818,782,2205,2073,2206,2207
550,729,774,847,800,1053,2208,1178,2209
551,279,337,393,331,1607,2210,2211,2179
552,452,271,295,336,984,2173,2212,1870
553,430,393,337,404,2213,2210,1780,2214
554,451,399,336,392,2215,1871,2216,2217
555,885,912,919,897,2218,2192,2219,2220
556,783,845,925,818,2221,1473,2222,2074
557,627,682,700,656,1247,2223,2224,1324
558,453,427,478,490,2225,1132,1025,2226
559,966,974,967,961,1071,1064,2227,1535
560,638,645,637,715,2228,2229,2230,1383
561,907,909,937,888,2155,1773,2231,1396
562,781,748,734,768,2232,1596,1248,2233
563,933,922,904,956,1121,1335,1437,1572
564,871,906,863,833,1565,2234,2235,2236
565,838,799,833,863,1157,2237,2235,1434
566,519,584,500,554,1259,1568,1969,2238
567,216,305,35,36,2086,2239,135,2188
568,16,314,233,15,1906,2240,1952,115
569,5,254,220,4,1922,2111,1901,104
570,88,312,227,87,1941,2241,1907,187
571,89,90,250,213,189,1921,2092,1939
572,18,321,232,17,2046,2242,1905,117
573,93,319,230,92,2054,2243,1942,192
574,81,206,251,80,1948,2114,1872,180
575,12,215,253,11,1956,2106,1924,111
576,23,24,212,252,123,1976,2095,1927
577,676,632,683,713,2013,2244,2128,1761
578,375,233,314,429,2245,2240,1894,2246
579,99,320,247,98,2047,2247,1877,198
580,8,322,207,7,2051,1809,1902,107
581,353,232,321,443,1892,2242,1984,1851
582,349,230,319,441,1965,2243,1994,2248
583,333,247,320,442,1953,2247,1996,1847
584,925,889,943,846,1472,1415,2249,2250
585,315,438,335,204,1980,1794,1986,1891
586,297,432,340,248,1882,1843,1989,1963
587,316,437,351,225,1987,1781,1993,1960
588,539,525,407,503,1320,2005,2251,2252
589,550,463,636,591,1377,2069,2253,2182
590,388,397,448,286,1789,2254,2029,2255
591,389,273,449,396,2158,2097,2256,1757
592,366,427,453,394,2022,2225,2257,2258
593,658,569,515,638,1438,1098,2259,1382
594,634,670,749,720,2186,2077,1243,2260
595,266,48,49,223,2261,148,1510,2177
596,53,54,245,222,153,2262,2174,2263
597,28,29,244,241,128,2264,2171,2145
598,536,642,682,596,1476,2265,1246,2088
599,700,735,699,656,1148,2266,1325,2224
600,313,246,436,356,2049,1831,2267,1799
601,311,226,435,343,2048,1835,1721,1802
602,308,229,433,370,2052,1839,2204,1680
603,438,374,499,468,1983,1818,1491,1795
604,816,732,788,809,1005,1444,2066,2152
605,442,381,489,511,1998,1702,1375,1848
606,528,641,565,541,2268,2269,2070,1751
607,621,671,750,695,2014,1241,2002,2270
608,410,476,600,528,1270,1764,2271,1753
609,834,803,858,869,1463,1506,2272,1000
610,626,533,454,593,2273,2274,2080,1225
611,270,242,264,293,2068,2275,2276,1609
612,361,276,265,224,1493,2277,2278,1631
613,608,662,752,707,2279,1404,1539,2139
614,847,875,917,902,2280,2281,2282,1175
615,934,914,890,919,2283,2284,2285,2191
616,580,556,511,560,1774,1849,1374,2040
617,740,772,883,710,2286,2287,2288,1276
618,441,559,472,349,1909,1856,1766,2248
619,310,439,354,206,1991,1303,2115,1950
620,304,253,377,350,1925,2105,2289,2032
621,303,252,378,355,1928,2094,2290,2031
622,296,220,376,348,1900,2110,2122,1829
623,366,394,228,305,2258,2291,2292,2087
624,718,743,758,651,1695,1667,1351,2131
625,219,291,26,27,2119,2026,126,2144
626,667,710,883,817,1739,2288,2293,1659
627,602,629,661,639,1629,2294,2295,2296
628,531,621,677,594,2015,2297,1306,1706
629,621,695,755,677,2270,1637,1287,2297
630,774,816,875,847,1006,2151,2280,2208
631,688,625,660,691,2198,1419,1698,2298
632,599,551,434,491,2299,1762,1605,2004
633,520,461,534,590,1023,2300,2301,2202
634,590,639,661,669,2302,2295,1458,2203
635,298,207,447,383,1903,1812,1268,2303
636,437,340,558,458,1990,1846,2304,1782
637,486,563,577,549,1370,2305,1388,1138
638,288,362,420,211,1054,1453,2001,1393
639,221,66,67,242,2195,166,2306,2067
640,292,224,60,61,1632,2307,160,2019
641,423,293,329,339,1610,2308,2309,1614
642,276,338,371,307,1492,2310,2311,2312
643,347,275,394,453,2313,2314,2257,2315
644,518,467,430,404,1623,2316,2214,1467
645,399,451,495,482,2215,2317,2318,2181
646,459,400,371,338,1449,2319,2310,1643
647,487,339,391,411,1615,2320,2321,1456
648,490,510,347,453,2076,2322,2315,2226
649,979,968,975,978,1806,2323,2324,2325
650,809,844,879,829,2065,2326,1398,2149
651,852,814,801,837,1841,2327,2328,1301
652,835,861,837,801,2329,2330,2328,992
653,890,914,895,867,2284,1736,1549,2331
654,861,835,881,897,2329,1313,2332,2333
655,292,210,360,425,2018,1114,1553,1633
656,657,702,680,614,1129,1617,1517,1174
657,909,921,914,934,2157,1737,2283,2334
658,952,920,886,931,1651,1746,1468,2335
659,715,637,619,665,2230,2336,2337,2163
660,805,775,731,782,2153,1483,2207,2010
661,613,597,561,681,1625,2338,1361,2339
662,976,982,980,969,1262,2340,1091,1363
663,568,539,475,589,1317,2341,2168,2138
664,309,263,218,277,2342,2343,1520,2344
665,328,295,245,262,2345,2175,2346,2347
666,284,237,266,331,2348,2349,2176,2350
667,285,330,244,261,2351,2172,2352,2353
668,727,730,692,654,1086,2354,1563,1576
669,665,693,781,738,2355,2356,2357,2164
670,457,419,466,542,1779,1587,2358,2359
671,527,455,516,570,1689,2180,1519,2133
672,878,850,804,853,1529,1191,2360,1119
673,551,599,683,632,2299,2127,2244,2012
674,797,873,896,845,2147,2123,1474,2361
675,560,601,644,635,1373,2183,2362,2041
676,587,577,667,616,1386,1740,1658,1238
677,54,55,262,245,154,2363,2346,2262
678,73,218,263,72,1730,2343,2364,172
679,48,266,237,47,2261,2349,2365,147
680,29,30,261,244,129,2366,2352,2264
681,267,470,504,382,2103,1814,2061,2367
682,665,619,655,693,2337,2368,2369,2355
683,646,655,619,576,1826,2368,2370,1344
684,503,448,475,539,2030,2371,2341,2252
685,873,899,941,918,2146,1864,2372,2124
686,735,786,714,699,1777,1402,2373,2266
687,210,64,65,287,2079,164,2196,1115
688,591,636,716,663,2253,1896,2374,2036
689,240,39,40,289,1875,139,2197,1187
690,630,668,714,662,2063,2375,1405,2376
691,977,978,971,983,2377,2378,1867,1062
692,708,718,633,674,1696,2130,1724,1678
693,576,619,637,588,2370,2336,2379,2083
694,504,523,595,401,1813,2380,2381,2062
695,640,595,523,620,1685,2380,1307,2382
696,277,344,390,309,1252,2383,2384,2344
697,409,330,285,334,1201,2351,2385,1315
698,331,393,358,284,2211,2386,2387,2350
699,336,295,328,392,2212,2345,2388,2216
700,778,791,708,754,2389,1693,1677,2166
701,299,249,274,388,1885,2390,1790,2391
702,251,267,382,300,2113,2367,1837,1873
703,454,449,498,537,2392,2099,2393,2081
704,503,407,350,377,2251,1820,2289,2027
705,332,416,355,378,1233,1816,2290,2108
706,735,777,852,806,1151,1842,1300,1778
707,671,579,634,720,2016,1862,2260,1242
708,747,698,709,780,1697,1358,2394,1264
709,642,722,700,682,1217,1149,2223,2265
710,293,264,203,329,2276,2395,2396,2308
711,341,238,260,272,1556,2397,2398,1198
712,394,275,255,228,2314,2399,2400,2291
713,276,307,236,265,2312,2401,2402,2277
714,821,848,864,905,2403,1938,1044,2404
715,724,658,701,737,1439,1381,2405,1501
716,446,358,393,430,2406,2386,2213,2407
717,445,390,344,412,2408,2383,1440,2409
718,444,421,334,372,2410,1316,2411,2412
719,415,451,392,352,2413,2217,2414,2415
720,912,944,962,932,2416,1578,2417,2193
721,939,918,941,948,2125,2372,1011,2418
722,748,781,693,742,2232,2356,2419,1065
723,768,812,738,781,1554,2420,2357,2233
724,395,417,356,436,1379,1700,2267,2058
725,948,976,947,981,1260,2421,2422,2423
726,679,719,748,696,1649,1597,1068,2424
727,699,714,668,618,2373,2375,1257,1326
728,242,67,68,264,2306,167,2425,2275
729,305,228,34,35,2292,2426,134,2239
730,306,42,43,238,1295,142,2427,1558
731,224,265,59,60,2278,2428,159,2307
732,662,608,589,630,2279,2136,2167,2376
733,538,564,422,510,2085,2429,2430,2075
734,522,481,450,400,1423,2431,2432,1448
735,546,411,431,483,1454,2433,2434,1431
736,585,552,509,467,1154,2435,2436,1624
737,567,482,495,562,1507,2318,1104,1662
738,805,874,903,840,2009,2437,2438,2154
739,846,943,903,874,2249,2439,2437,2008
740,938,913,901,916,2440,2189,2441,2442
741,870,903,916,901,2443,2444,2441,1214
742,919,890,861,897,2285,2445,2333,2219
743,928,894,924,936,2446,1040,1644,1095
744,859,832,868,887,1823,2447,2190,2448
745,373,227,312,389,1880,2241,2159,1756
746,856,773,817,883,1592,2055,2293,2449
747,706,742,693,655,1066,2419,2369,1825
748,859,884,872,828,2450,2451,1728,1824
749,953,917,888,937,1470,2452,2231,2021
750,848,821,756,784,2403,2453,2454,1917
751,588,637,645,607,2379,2229,2455,2456
752,829,888,917,875,1397,2452,2281,2150
753,403,272,318,342,1195,2457,2458,1723
754,275,347,387,317,2313,2459,2460,2461
755,339,329,281,391,2309,2462,2463,2320
756,307,371,386,327,2311,2464,2465,2466
757,670,603,533,626,2185,2467,2273,2078
758,753,723,641,676,1052,2468,2469,1760
759,689,731,705,664,2205,1482,1223,1353
760,326,259,237,284,2470,2471,2348,2472
761,325,235,263,309,2473,2474,2342,2475
762,280,328,262,208,2476,2347,2477,2478
763,324,285,261,205,2479,2353,2480,2481
764,845,783,763,797,2221,1665,2482,2361
765,880,851,834,866,1648,1646,1003,1042
766,456,604,561,553,1775,1362,2483,2003
767,72,263,235,71,2364,2474,2484,171
768,47,237,259,46,2365,2471,2485,146
769,55,56,208,262,155,2486,2477,2363
770,30,31,205,261,130,2487,2480,2366
771,770,827,772,792,1179,2141,2488,1639
772,771,836,879,844,1283,2489,2326,1087
773,643,581,457,542,1611,1465,2359,2135
774,973,964,962,975,2020,2490,2491,2492
775,222,288,52,53,1055,1395,152,2263
776,885,926,944,912,1622,2493,2416,2218
777,772,740,755,792,2286,2494,1640,2488
778,887,908,884,859,1485,1331,2450,2448
779,784,756,685,711,2454,2495,2496,1935
780,383,269,254,298,2102,2112,1923,2303
781,388,286,215,299,2255,2107,1957,2391
782,274,249,233,375,2390,1951,2245,1712
783,268,323,212,243,2116,2096,1975,2121
784,577,563,575,615,2305,2497,1548,1741
785,498,369,368,402,2098,2187,1768,2498
786,769,760,726,733,1152,2499,1599,1584
787,510,422,387,347,2430,2500,2459,2322
788,411,391,357,431,2321,2501,2502,2433
789,400,450,386,371,2432,2503,2464,2319
790,460,342,385,406,1722,2504,2505,1077
791,767,824,842,808,1107,1159,1311,1273
792,570,680,622,643,1518,1616,1612,2134
793,865,854,821,905,1716,2506,2404,1348
794,949,942,952,963,2507,1652,2508,2071
795,675,640,620,717,1547,2382,1285,2509
796,590,534,602,639,2301,1634,2296,2302
797,629,679,696,661,1514,2424,1459,2294
798,609,688,728,721,2199,2510,1692,1057
799,623,697,613,681,1478,1749,2339,1360
800,871,833,812,849,2236,2511,1555,1234
801,265,236,58,59,2402,2512,158,2428
802,228,255,33,34,2400,2513,133,2426
803,264,68,69,203,2425,168,2514,2395
804,238,43,44,260,2427,143,2515,2397
805,329,203,256,281,2396,2516,2517,2462
806,307,327,257,236,2466,2518,2519,2401
807,275,317,258,255,2461,2520,2521,2399
808,272,260,201,318,2398,2522,2523,2457
809,807,780,757,766,1265,2524,2525,1189
810,854,790,756,821,1321,2526,2453,2506
811,676,641,528,600,2469,2268,2271,2011
812,684,624,686,709,2527,2528,2529,1357
813,357,325,309,390,2530,2475,2384,2531
814,385,326,284,358,2532,2472,2387,2533
815,334,285,324,372,2385,2479,2534,2411
816,392,328,280,352,2388,2476,2535,2414
817,653,565,641,723,1898,2269,2468,1934
818,544,583,517,479,2536,1733,1792,2044
819,978,975,962,971,2324,2491,1577,2378
820,832,856,839,868,1590,2537,1216,2447
821,855,797,763,823,2148,2482,2538,1110
822,527,542,466,497,2132,2358,1451,1690
823,909,934,932,950,2334,2194,2539,1770
824,588,607,513,564,2456,2540,2541,2084
825,467,509,446,430,2436,2542,2407,2316
826,412,484,505,445,1140,1673,2543,2409
827,451,415,506,495,2413,2544,1669,2317
828,513,512,421,444,2545,1137,2410,2546
829,824,789,779,799,1106,2547,2548,1160
830,790,704,685,756,2549,2550,2495,2526
831,737,701,741,767,2405,1583,1108,1272
832,799,779,812,833,2548,2551,2511,2237
833,794,825,853,804,2552,1727,2360,1279
834,201,45,46,259,2553,145,2485,2554
835,256,70,71,235,2555,170,2484,2556
836,257,208,56,57,2557,2486,156,2558
837,258,205,31,32,2559,2487,131,2560
838,762,738,812,779,2162,2420,2551,2561
839,500,440,375,429,1571,1713,2246,1968
840,827,840,903,870,1182,2438,2443,2142
841,956,862,878,892,1436,1530,1118,1573
842,846,782,818,925,2007,2206,2222,2250
843,725,746,766,757,1145,1280,2525,2562
844,711,685,635,644,2496,2563,2362,2034
845,281,256,235,325,2517,2556,2473,2564
846,327,280,208,257,2565,2478,2557,2518
847,318,201,259,326,2523,2554,2470,2566
848,317,324,205,258,2567,2481,2559,2520
849,764,728,688,691,1505,2510,2298,1385
850,686,757,780,709,2568,2524,2394,2529
851,558,508,533,603,1845,2569,2467,2570
852,635,685,704,678,2563,2550,1480,2042
853,955,958,944,926,2571,1579,2493,1711
854,586,557,552,566,1036,2572,1153,1406
855,867,837,861,890,1298,2330,2445,2331
856,922,965,970,957,1124,1349,1069,1645
857,932,962,964,950,2417,2490,1771,2539
858,743,791,823,763,1694,2573,2538,1668
859,352,280,327,386,2535,2565,2465,2574
860,372,324,317,387,2534,2567,2460,2575
861,391,281,325,357,2463,2564,2530,2501
862,342,318,326,385,2458,2566,2532,2504
863,898,900,942,911,1046,1650,2576,1865
864,255,258,32,33,2521,2560,132,2513
865,236,257,57,58,2519,2558,157,2512
866,260,44,45,201,2515,144,2553,2522
867,203,69,70,256,2514,169,2555,2516
868,659,702,793,733,1618,1131,1585,1598
869,406,385,358,446,2505,2533,2406,2577
870,431,357,390,445,2502,2531,2408,2578
871,422,444,372,387,2579,2412,2575,2500
872,450,415,352,386,2580,2415,2574,2503
873,734,692,730,776,1595,2354,1194,1249
874,401,595,532,480,2381,1687,1229,1977
875,876,907,879,836,2156,1399,2489,1282
876,967,958,955,961,1868,2571,1674,2227
877,894,928,891,860,2446,1294,2581,1355
878,458,558,603,578,2304,2570,2184,2038
879,469,380,343,507,1911,1803,1720,1947
880,697,704,790,736,1481,2549,1323,1750
881,791,778,811,823,2389,2165,1111,2573
882,871,841,860,891,1237,1290,2581,1566
883,564,513,444,422,2541,2546,2579,2429
884,481,506,415,450,1670,2544,2580,2431
885,483,431,445,505,2434,2578,2543,1671
886,509,474,406,446,2582,1078,2577,2542
887,554,502,492,519,1853,1932,2583,2238
888,675,717,755,740,2509,1288,2494,1275
889,917,886,877,902,1469,1747,1176,2282
890,772,839,856,883,2140,2537,2449,2287
891,563,485,532,575,1369,1226,1686,2497
892,927,915,863,906,2584,1410,2234,1567
893,938,916,903,943,2442,2444,2439,1414
894,552,557,474,509,2572,1035,2582,2435
895,607,515,512,513,2585,1101,2545,2540
896,930,915,927,940,1411,2584,1292,1531
897,970,980,977,974,1092,2586,1061,1070
898,981,947,938,910,2422,2587,1417,2588
899,694,759,724,795,1744,988,1500,2200
900,779,789,741,762,2547,1105,1582,2561
901,931,960,963,952,1536,1808,2508,2335
902,638,515,607,645,2259,2585,2455,2228
903,941,911,942,949,1866,2576,2507,1008
904,461,473,555,534,1366,2589,1635,2300
905,857,826,807,850,1162,1266,1192,1528
906,508,496,454,533,1966,2590,2274,2569
907,897,881,882,885,2332,1664,1620,2220
908,597,507,553,561,1946,1719,2483,2338
909,624,606,647,686,1709,1683,2591,2528
910,647,725,757,686,1146,2562,2568,2591
911,703,787,825,794,998,1339,2552,1541
912,978,982,972,979,2592,1261,2072,2325
913,801,814,795,785,2327,2201,1499,993
914,869,858,857,862,2272,1163,1527,1435
915,448,397,494,475,2254,1791,2160,2371
916,610,726,760,727,1600,2499,1083,1575
917,449,454,496,396,2392,2590,1758,2256
918,960,973,975,968,1538,2492,2323,1805
919,948,981,910,939,2423,2588,1594,2418
920,418,341,555,473,1557,1197,2589,1015
921,468,535,519,492,1490,2593,2583,1796
922,402,524,537,498,2024,2594,2393,2498
923,618,519,535,627,1256,2593,1244,1327
924,628,537,524,633,2082,2594,1725,2129
925,544,526,573,583,2045,1309,2595,2536
926,617,666,583,573,990,1734,2595,1166
927,624,684,582,574,2527,1822,1222,1710
928,663,716,729,744,2374,1933,2596,1937
929,800,810,744,729,1522,1915,2596,2209
930,884,923,892,872,1330,1574,1117,2451
931,913,938,947,935,2440,2587,2597,1487
932,976,945,935,947,1365,1601,2597,2421
933,980,982,978,977,2340,2592,2377,2586
*NSET, NSET=EDGE
1,2,3,4,5,6,7,8,9,10
11,12,13,14,15,16,17,18,19,20
21,22,23,24,25,26,27,28,29,30
31,32,33,34,35,36,37,38,39,40
41,42,43,44,45,46,47,48,49,50
51,52,53,54,55,56,57,58,59,60
61,62,63,64,65,66,67,68,69,70
71,72,73,74,75,76,77,78,79,80
81,82,83,84,85,86,87,88,89,90
91,92,93,94,95,96,97,98,99,100
101,102,103,104,105,106,107,108,109,110
111,112,113,114,115,116,117,118,119,120
121,122,123,124,125,126,127,128,129,130
131,132,133,134,135,136,137,138,139,140
141,142,143,144,145,146,147,148,149,150
151,152,153,154,155,156,157,158,159,160
161,162,163,164,165,166,167,168,169,170
171,172,173,174,175,176,177,178,179,180
181,182,183,184,185,186,187,188,189,190
191,192,193,194,195,196,197,198,199,200
*NSET, NSET=CEN
974
*MATERIAL, NAME=PLY
*ELASTIC
8000.0,0.3
*DENSITY
6.8e-10
*SHELL SECTION, ELSET=EALL, MATERIAL=PLY
3.0
*BOUNDARY
EDGE,1,3
*STEP
*STATIC
*DLOAD
EALL,P,0.05
*NODE FILE
U
*EL FILE
S
*END STEP
